%nproc=1
%NoSave
%Mem=1900MB
#P OB98/GEN NMR

erre ene a

0 1
  C     -131.033     274.208      57.917
  O     -130.510     272.977      58.394
  P     -131.455     271.692      58.623
  C     -133.410     271.151      60.234
  O     -132.472     272.121      59.787
  C     -134.731     271.830      60.623
  O     -135.334     272.387      59.427
  C     -135.761     270.878      61.260
  O     -136.478     271.640      62.239
  C     -136.662     270.519      60.092
  O     -137.936     270.073      60.507
  C     -136.670     271.843      59.318
  N     -137.047     271.670      57.918
  C     -138.398     271.791      57.598
  O     -139.248     272.009      58.464
  N     -138.777     271.660      56.277
  C     -137.899     271.345      55.379
  N     -138.311     271.286      54.082
  C     -136.473     271.097      55.701
  C     -136.123     271.301      56.966
  O     -130.727     270.417      58.873
  O     -132.408     271.663      57.343
  H     -138.387     270.804      60.970
  H     -132.002     271.196      56.570
  H     -135.781     270.817      54.921
  H     -135.095     271.169      57.288
  H     -137.345     272.560      59.797
  H     -136.197     269.724      59.501
  H     -135.298     270.013      61.741
  H     -134.505     272.661      61.295
  H     -139.247     271.626      53.885
  H     -132.995     270.655      61.114
  H     -137.650     271.369      53.321
  H     -133.566     270.404      59.452
  P     -137.304     270.841      63.369
  C     -139.341     269.230      63.429
  O     -138.488     270.037      62.645
  O     -138.100     272.033      64.095
  O     -136.493     270.091      64.378
  H     -138.312     271.764      65.007
  H     -140.087     268.766      62.773
  H     -139.863     269.832      64.176
  H     -138.766     268.434      63.925
  H     -130.242     274.924      57.837
  H     -131.774     274.569      58.599
  H     -131.477     274.058      56.955

 3  4  5  6  7  8  9  10  11  12  13  23  27  28  29  30  32 0
 6-311+G(2d,p)
 ****
 34  35 0
 6-311+G(2d,p)
 ****
 1  2  14  15  16  17  18  19  20  21  22  24  25  26 0
 3-21G
 ****
 31  33  36  37  38  39  40  41  42  43  44  45  46 0
 3-21G
 ****


