%nproc=1
%NoSave
%Mem=1900MB
#P OB98/GEN NMR

erre ene a

0 1
  C     -286.832     278.344     -58.496
  O     -285.621     278.613     -59.175
  H     -287.466     279.233     -58.542
  H     -286.629     278.111     -57.444
  H     -287.358     277.510     -58.966
  P     -284.559     277.413     -59.258
  C     -282.664     278.803     -58.135
  O     -283.509     277.655     -58.066
  C     -281.263     278.437     -57.649
  O     -281.321     278.042     -56.263
  C     -280.630     277.259     -58.387
  O     -280.097     277.639     -59.644
  C     -279.571     276.814     -57.384
  O     -278.377     277.601     -57.497
  C     -280.253     277.096     -56.034
  N     -279.179     273.290     -52.814
  C     -278.485     274.392     -53.175
  N     -278.851     275.370     -54.033
  C     -280.083     275.133     -54.524
  C     -280.903     274.049     -54.254
  C     -280.414     273.095     -53.351
  N     -281.100     271.958     -53.013
  N     -282.070     274.136     -54.987
  C     -281.958     275.248     -55.682
  N     -280.776     275.889     -55.429
  O     -283.723     277.768     -60.580
  O     -285.150     276.042     -59.319
  H     -278.121     277.583     -58.437
  H     -284.098     277.284     -61.341
  H     -277.501     274.501     -52.720
  H     -282.700     275.634     -56.380
  H     -279.566     277.551     -55.312
  H     -279.290     275.771     -57.534
  H     -281.365     276.447     -58.506
  H     -280.622     279.328     -57.725
  H     -283.072     279.593     -57.499
  H     -282.633     279.157     -59.174
  H     -280.678     271.301     -52.372
  H     -281.971     271.746     -53.488
  P     -280.457     276.758     -60.928
  C     -278.696     274.864     -60.619
  O     -280.063     275.234     -60.594
  O     -279.357     277.206     -62.008
  O     -281.846     276.939     -61.442
  H     -279.746     277.847     -62.635
  H     -278.603     273.826     -60.377
  H     -278.156     275.447     -59.903
  H     -278.297     275.039     -61.596

 6  7  8  9  10  11  12  13  14  15  25  28  32  33  34  35 0
 6-311+G(2d,p)
 ****
 36  37  40 0
 6-311+G(2d,p)
 ****
 1  2  3  4  5  16  17  18  19  20  21  22  23  24 0
 3-21G
 ****
 26  27  29  30  31  38  39 41  42  43  44  45  46  47  48 0
 3-21G
 ****


