%nproc=1
%NoSave
%Mem=1900MB
#P OB98/GEN NMR

erre ene a

0 1
  C       74.975    -832.201    -343.437
  O       75.621    -833.256    -342.750
  H       75.661    -831.787    -344.175
  H       74.686    -831.410    -342.741
  H       74.084    -832.579    -343.959
  P       74.856    -833.959    -341.533
  C       72.852    -835.591    -341.451
  O       74.009    -835.173    -342.159
  C       72.506    -837.049    -341.778
  O       72.243    -837.160    -343.206
  C       73.642    -838.041    -341.448
  O       73.033    -839.300    -341.129
  C       74.360    -838.125    -342.786
  O       75.243    -839.223    -342.827
  C       73.164    -838.135    -343.740
  N       73.549    -837.829    -345.112
  C       74.291    -838.805    -345.776
  O       74.598    -839.850    -345.201
  N       74.689    -838.571    -347.070
  C       74.426    -837.426    -347.630
  N       74.869    -837.246    -348.898
  C       73.696    -836.343    -346.936
  C       73.279    -836.614    -345.697
  O       74.081    -833.045    -340.640
  O       76.021    -834.713    -340.731
  H       75.869    -839.200    -342.070
  H       76.228    -834.219    -339.912
  H       73.515    -835.402    -347.433
  H       72.733    -835.877    -345.114
  H       72.660    -839.113    -343.728
  H       74.972    -837.230    -342.949
  H       74.280    -837.703    -340.626
  H       71.587    -837.326    -341.254
  H       75.376    -838.016    -349.331
  H       72.027    -834.937    -341.750
  H       74.738    -836.397    -349.422
  H       73.012    -835.483    -340.371
  P       72.424    -839.616    -339.680
  C       70.196    -839.233    -338.418
  O       70.845    -839.303    -339.685
  O       73.160    -838.979    -338.544
  O       72.472    -841.218    -339.548
  H       72.601    -841.453    -338.611
  H       69.157    -839.021    -338.561
  H       70.641    -838.457    -337.831
  H       70.302    -840.169    -337.911

 6  7  8  9  10  11  12  13  14  15  16  26  30  31  32  33  35 0
 6-311+G(2d,p)
 ****
 37  38 0
 6-311+G(2d,p)
 ****
 1  2  3  4  5  17  18  19  20  21  22  23  24  25 0
 3-21G
 ****
 27  28  29  34  36  39  40  41  42  43  44  45  46 0
 3-21G
 ****


