%nproc=1
%NoSave
%Mem=1900MB
#P OB98/GEN NMR

erre ene a

0 1
  C      479.774    -324.426     234.947
  O      479.944    -323.893     236.270
  P      480.933    -322.640     236.488
  C      479.084    -320.835     236.907
  O      480.162    -321.287     236.097
  C      478.375    -319.660     236.244
  O      477.819    -320.054     234.968
  C      477.190    -319.099     237.028
  O      477.612    -318.297     238.118
  C      476.437    -318.326     235.946
  O      477.019    -317.018     235.758
  C      476.675    -319.219     234.705
  N      475.499    -320.001     234.347
  C      474.654    -319.452     233.386
  O      474.829    -318.333     232.886
  N      473.574    -320.214     233.024
  C      473.215    -321.416     233.579
  O      472.223    -322.037     233.232
  C      474.105    -321.901     234.649
  C      475.176    -321.185     234.982
  O      481.954    -322.804     235.250
  O      481.679    -322.622     237.788
  H      477.026    -316.583     236.631
  H      482.818    -322.419     235.488
  H      472.966    -319.835     232.308
  H      473.847    -322.843     235.131
  H      475.834    -321.539     235.764
  H      476.953    -318.583     233.853
  H      475.387    -318.177     236.199
  H      476.556    -319.933     237.382
  H      479.112    -318.869     236.054
  H      479.484    -320.513     237.880
  H      478.397    -321.663     237.075
  P      477.583    -318.975     239.577
  C      480.037    -318.167     239.974
  O      479.113    -319.235     239.957
  O      476.982    -320.422     239.225
  O      476.776    -318.191     240.574
  H      477.273    -320.737     238.339
  H      479.568    -317.222     240.278
  H      480.463    -318.053     238.961
  H      480.845    -318.403     240.664
  H      479.090    -325.248     234.979
  H      480.719    -324.763     234.574
  H      479.387    -323.664     234.303

 3  4  5  6  7  8  9  10  11  12  13  23  28  29  30  31  32 0
 6-311+G(2d,p)
 ****
 33  34 0
 6-311+G(2d,p)
 ****
 1  2  14  15  16  17  18  19  20  21  22  24  25  26 0
 3-21G
 ****
 27  35  36  37  38  39  40  41  42  43  44  45 0
 3-21G
 ****


