%nproc=1
%NoSave
%Mem=1900MB
#P OB98/GEN NMR

erre ene a

0 1
  C     -344.135    -472.553    -897.500
  O     -344.816    -471.846    -896.480
  H     -344.870    -472.973    -898.200
  H     -343.558    -473.378    -897.070
  H     -343.461    -471.888    -898.050
  P     -343.909    -471.186    -895.340
  C     -344.566    -469.612    -893.370
  O     -344.764    -469.963    -894.740
  C     -345.222    -468.261    -893.070
  O     -344.568    -467.194    -893.810
  C     -346.711    -468.186    -893.420
  O     -347.499    -468.767    -892.400
  C     -346.909    -466.691    -893.570
  O     -347.080    -466.070    -892.290
  C     -345.595    -466.256    -894.230
  N     -344.901    -463.294    -898.270
  C     -344.681    -463.040    -896.940
  N     -344.277    -461.781    -896.610
  N     -344.871    -463.908    -895.980
  C     -345.307    -465.118    -896.440
  C     -345.546    -465.498    -897.740
  C     -345.295    -464.522    -898.780
  O     -345.404    -464.702    -900.000
  N     -345.964    -466.801    -897.830
  C     -346.024    -467.197    -896.560
  N     -345.644    -466.204    -895.680
  O     -342.737    -470.448    -896.160
  O     -343.349    -472.134    -894.330
  H     -347.968    -466.282    -891.940
  H     -341.926    -470.438    -895.630
  H     -344.726    -462.580    -898.950
  H     -346.313    -468.183    -896.220
  H     -345.278    -465.256    -893.900
  H     -347.797    -466.462    -894.140
  H     -344.438    -461.004    -897.230
  H     -346.904    -468.686    -894.390
  H     -344.154    -461.573    -895.630
  H     -345.082    -468.060    -892.010
  H     -343.484    -469.531    -893.180
  H     -344.986    -470.388    -892.730
  P     -348.844    -469.545    -892.840
  C     -350.332    -471.283    -891.580
  O     -349.011    -470.766    -891.810
  O     -348.416    -470.275    -894.210
  O     -350.050    -468.674    -893.020
  H     -349.211    -470.533    -894.700
  H     -350.283    -472.087    -890.876
  H     -350.740    -471.641    -892.502
  H     -350.956    -470.506    -891.191

 6  7  8  9  10  11  12  13  14  15  26  29  33  34 0
 6-311+G(2d,p)
 ****
 36  38  39  40  41 0
 6-311+G(2d,p)
 ****
 1  2  3  4  5  16  17  18  19  20  21  22  23  24  25 0
 3-21G
 ****
 27  28  30  31  32  35  37  42  43  44  45  46  47 0
 3-21G
 ****
 48  49 0
 3-21G
 ****


