%nproc=1
%NoSave
%Mem=1900MB
#P OB98/GEN NMR

erre ene a

0 1
  C      291.472     193.206    -599.104
  O      291.366     194.619    -599.104
  H      291.343     192.818    -598.088
  H      290.681     192.794    -599.740
  H      292.443     192.898    -599.505
  P      292.463     195.416    -598.249
  C      291.011     195.399    -596.094
  O      291.656     196.183    -597.090
  C      289.938     196.228    -595.390
  O      290.532     197.396    -594.791
  C      288.831     196.747    -596.300
  O      287.860     195.751    -596.576
  C      288.259     197.864    -595.436
  O      287.390     197.305    -594.436
  C      289.520     198.443    -594.783
  N      290.140     203.517    -594.543
  C      289.638     202.622    -593.656
  N      289.529     201.288    -593.788
  C      290.018     200.883    -594.970
  C      290.576     201.666    -595.964
  C      290.623     203.053    -595.718
  N      291.077     203.962    -596.662
  N      290.953     200.894    -597.041
  C      290.606     199.668    -596.714
  N      290.049     199.610    -595.465
  O      292.912     196.591    -599.246
  O      293.629     194.603    -597.794
  H      287.091     198.051    -593.873
  H      293.728     196.327    -599.704
  H      289.274     203.046    -592.720
  H      290.743     198.796    -597.340
  H      289.352     198.719    -593.733
  H      287.672     198.590    -596.010
  H      289.235     197.183    -597.221
  H      289.522     195.614    -594.576
  H      291.749     195.058    -595.364
  H      290.649     204.879    -596.580
  H      291.172     203.584    -597.598
  H      290.557     194.525    -596.578
  P      287.353     195.594    -598.088
  C      284.903     195.477    -597.263
  O      285.933     194.853    -598.023
  O      288.336     194.489    -598.679
  O      287.394     196.851    -598.908
  H      288.789     194.829    -599.478
  H      284.017     194.879    -597.305
  H      284.699     196.447    -597.667
  H      285.219     195.574    -596.245

 6  7  8  9  10  11  12  13  14  15  25  28  32  33  34  35 0
 6-311+G(2d,p)
 ****
 36  39  40 0
 6-311+G(2d,p)
 ****
 1  2  3  4  5  16  17  18  19  20  21  22  23  24 0
 3-21G
 ****
 26  27  29  30  31  37  38  41  42  43  44  45  46  47  48 0
 3-21G
 ****


