%nproc=1
%NoSave
%Mem=1900MB
#P OB98/GEN NMR

erre ene a

0 1
  C     -284.975     130.075      66.917
  O     -283.684     130.271      66.338
  P     -283.549     130.352      64.744
  C     -281.064     129.674      64.719
  O     -282.020     130.665      64.369
  C     -279.694     130.307      64.986
  O     -279.167     130.924      63.775
  C     -279.755     131.412      66.056
  O     -278.536     131.446      66.814
  C     -279.824     132.681      65.231
  O     -279.415     133.822      65.984
  C     -278.907     132.314      64.064
  N     -277.497     136.554      61.563
  C     -277.017     135.969      62.685
  N     -277.428     134.831      63.278
  C     -278.435     134.271      62.589
  C     -279.021     134.743      61.425
  C     -278.516     135.949      60.908
  N     -279.023     136.554      59.782
  N     -280.033     133.900      61.004
  C     -280.086     132.961      61.928
  N     -279.122     133.124      62.885
  O     -284.556     131.211      64.053
  O     -283.703     128.819      64.297
  H     -279.411     134.586      65.378
  H     -284.266     128.773      63.498
  H     -276.200     136.495      63.170
  H     -280.809     132.159      61.960
  H     -277.846     132.399      64.340
  H     -280.852     132.846      64.889
  H     -280.598     131.323      66.750
  H     -278.988     129.526      65.282
  H     -280.983     128.941      63.914
  H     -278.679     137.477      59.554
  H     -279.877     136.196      59.373
  H     -281.425     129.123      65.593
  P     -278.601     130.804      68.290
  C     -277.216     132.734      69.382
  O     -277.316     131.361      69.066
  O     -278.777     129.321      68.283
  O     -279.832     131.596      68.938
  H     -279.789     132.559      68.850
  H     -276.339     132.885      70.015
  H     -278.101     133.077      69.922
  H     -277.091     133.318      68.466
  H     -284.887     130.045      67.983
  H     -285.387     129.151      66.567
  H     -285.619     130.882      66.635

 3  4  5  6  7  8  9  10  11  12  22  25  29  30  31  32 0
 6-311+G(2d,p)
 ****
 33  36  37 0
 6-311+G(2d,p)
 ****
 1  2  13  14  15  16  17  18  19  20  21  23  24  26 0
 3-21G
 ****
 27  28  34  35  38  39  40  41  42  43  44  45  46  47  48 0
 3-21G
 ****


