%nproc=1
%NoSave
%Mem=1900MB
#P OB98/GEN NMR

erre ene a

0 1
  C     -271.540     522.402    -215.361
  O     -271.552     521.116    -215.945
  H     -270.506     522.744    -215.284
  H     -271.974     522.368    -214.359
  H     -272.102     523.102    -215.986
  P     -272.974     520.380    -216.055
  C     -272.654     518.988    -218.225
  O     -273.249     520.126    -217.615
  C     -272.516     519.236    -219.724
  O     -271.499     520.243    -219.962
  C     -272.060     518.021    -220.512
  O     -273.115     517.100    -220.769
  C     -271.548     518.669    -221.786
  O     -272.608     518.918    -222.720
  C     -270.947     519.986    -221.271
  N     -269.489     519.941    -221.244
  C     -268.883     519.330    -222.346
  O     -269.514     518.850    -223.277
  N     -267.515     519.250    -222.295
  C     -266.723     519.666    -221.274
  O     -265.506     519.513    -221.273
  C     -267.416     520.292    -220.135
  C     -268.748     520.397    -220.168
  O     -274.013     521.536    -215.665
  O     -273.128     519.173    -215.186
  H     -274.368     521.375    -214.771
  H     -272.172     519.201    -223.554
  H     -267.056     518.807    -223.081
  H     -266.817     520.634    -219.302
  H     -269.281     520.841    -219.346
  H     -271.251     520.822    -221.909
  H     -270.820     518.039    -222.289
  H     -271.224     517.529    -220.003
  H     -273.474     519.613    -220.109
  H     -273.288     518.113    -218.071
  H     -271.682     518.801    -217.765
  P     -273.581     516.145    -219.559
  C     -276.059     516.937    -219.161
  O     -274.697     516.975    -218.759
  O     -272.288     516.203    -218.625
  O     -273.983     514.783    -220.013
  H     -271.788     517.038    -218.738
  H     -276.641     517.551    -218.506
  H     -276.416     515.929    -219.116
  H     -276.145     517.302    -220.163

 6  7  8  9  10  11  12  13  14  15  16  27  31  32  33  34  35 0
 6-311+G(2d,p)
 ****
 36  37 0
 6-311+G(2d,p)
 ****
 1  2  3  4  5  17  18  19  20  21  22  23  24  25 0
 3-21G
 ****
 26  28  29  30  38  39  40  41  42  43  44  45 0
 3-21G
 ****


