%nproc=1
%NoSave
%Mem=1900MB
#P OB98/GEN NMR

erre ene a

0 1
  C      765.935    -168.431    -347.073
  O      765.148    -169.396    -346.416
  H      766.985    -168.579    -346.798
  H      765.634    -167.415    -346.785
  H      765.838    -168.544    -348.162
  P      763.549    -169.233    -346.456
  C      761.894    -167.542    -345.412
  O      763.210    -168.093    -345.376
  C      761.445    -167.075    -344.025
  O      761.299    -168.212    -343.138
  C      762.456    -166.167    -343.338
  O      762.568    -164.883    -343.929
  C      762.051    -166.273    -341.870
  O      761.010    -165.377    -341.489
  C      761.531    -167.737    -341.796
  N      762.447    -168.602    -341.061
  C      762.266    -168.633    -339.683
  O      761.419    -167.964    -339.089
  N      763.140    -169.438    -338.991
  C      764.164    -170.148    -339.529
  O      764.936    -170.809    -338.843
  C      764.323    -170.050    -340.977
  C      763.464    -169.300    -341.677
  O      762.755    -170.495    -346.276
  O      763.281    -168.499    -347.853
  H      761.376    -164.472    -341.552
  H      762.332    -168.578    -348.116
  H      763.018    -169.479    -337.986
  H      765.139    -170.608    -341.451
  H      763.562    -169.213    -342.762
  H      760.559    -167.759    -341.291
  H      762.899    -166.081    -341.212
  H      763.446    -166.621    -343.422
  H      760.463    -166.603    -344.119
  H      761.212    -168.334    -345.767
  H      761.859    -166.711    -346.134
  P      763.904    -164.015    -343.886
  C      765.572    -163.206    -342.046
  O      764.283    -163.742    -342.345
  O      764.006    -162.887    -344.855
  O      765.013    -165.116    -344.313
  H      765.701    -164.654    -344.830
  H      765.670    -163.083    -340.988
  H      765.684    -162.257    -342.527
  H      766.328    -163.876    -342.399

 6  7  8  9  10  11  12  13  14  15  16  26  31  32  33  34  35 0
 6-311+G(2d,p)
 ****
 36  37 0
 6-311+G(2d,p)
 ****
 1  2  3  4  5  17  18  19  20  21  22  23  24  25 0
 3-21G
 ****
 27  28  29  30  38  39  40  41  42  43  44  45 0
 3-21G
 ****


