%nproc=1
%NoSave
%Mem=1900MB
#P OB98/GEN NMR

erre ene a

0 1
  C       -6.808      27.317      -2.264
  O       -6.689      27.963      -1.013
  H       -7.010      28.069      -3.030
  H       -7.635      26.603      -2.245
  H       -5.876      26.802      -2.511
  P       -6.448      27.026       0.266
  C       -4.695      25.222       0.913
  O       -5.252      26.028      -0.115
  C       -4.555      23.787       0.420
  O       -5.853      23.262       0.060
  C       -3.698      23.640      -0.830
  O       -2.313      23.694      -0.541
  C       -4.144      22.275      -1.326
  O       -3.438      21.216      -0.661
  C       -5.643      22.260      -0.955
  N       -6.499      22.471      -2.117
  C       -6.605      21.394      -2.992
  O       -6.023      20.324      -2.818
  N       -7.377      21.599      -4.103
  C       -8.007      22.763      -4.435
  O       -8.624      22.904      -5.482
  C       -7.872      23.862      -3.465
  C       -7.128      23.673      -2.373
  O       -7.742      26.085       0.275
  O       -6.270      27.752       1.557
  H       -8.369      26.388       0.957
  H       -3.837      21.139       0.227
  H       -7.457      20.834      -4.754
  H       -8.365      24.799      -3.695
  H       -6.997      24.476      -1.654
  H       -5.915      21.296      -0.507
  H       -3.959      22.157      -2.393
  H       -3.979      24.396      -1.573
  H       -4.152      23.175       1.238
  H       -5.355      25.237       1.787
  H       -3.722      25.634       1.201
  P       -1.307      24.167      -1.697
  C       -1.044      26.509      -2.856
  O       -1.898      25.538      -2.283
  O       -1.618      23.090      -2.837
  O        0.117      24.233      -1.264
  H       -2.554      22.829      -2.868
  H       -1.625      27.345      -3.186
  H       -0.528      26.082      -3.690
  H       -0.333      26.835      -2.125

 6  7  8  9  10  11  12  13  14  15  16  27  31  32  33  34  35 0
 6-311+G(2d,p)
 ****
 36  37 0
 6-311+G(2d,p)
 ****
 1  2  3  4  5  17  18  19  20  21  22  23  24  25 0
 3-21G
 ****
 26  28  29  30  38  39  40  41  42  43  44  45 0
 3-21G
 ****


