%nproc=1
%NoSave
%Mem=1900MB
#P OB98/GEN NMR

erre ene a

0 1
  C      541.195     819.231     -15.478
  O      541.932     820.295     -14.890
  P      541.102     821.436     -14.092
  C      543.046     823.129     -14.488
  O      541.658     822.837     -14.659
  C      543.362     824.558     -14.942
  O      543.283     824.661     -16.358
  C      542.401     825.611     -14.382
  O      542.731     825.997     -13.062
  C      542.653     826.755     -15.350
  O      543.872     827.445     -14.996
  C      542.851     826.013     -16.687
  N      539.468     828.749     -19.379
  C      540.548     829.113     -18.643
  N      541.385     828.314     -17.942
  C      541.020     827.031     -18.037
  C      539.922     826.518     -18.719
  C      539.139     827.431     -19.444
  N      538.061     827.058     -20.218
  N      539.858     825.141     -18.584
  C      540.907     824.844     -17.822
  N      541.642     825.954     -17.487
  O      541.710     821.364     -12.621
  O      539.633     821.262     -14.107
  H      544.026     828.109     -15.698
  H      541.071     821.732     -11.972
  H      540.758     830.173     -18.597
  H      541.169     823.836     -17.506
  H      543.634     826.458     -17.296
  H      541.861     827.493     -15.351
  H      541.360     825.272     -14.474
  H      544.400     824.772     -14.619
  H      543.657     822.434     -15.085
  H      537.672     827.743     -20.847
  H      537.937     826.071     -20.420
  H      543.311     822.986     -13.427
  P      541.663     826.938     -12.293
  C      543.801     827.936     -11.205
  O      542.512     828.173     -11.745
  O      541.307     826.092     -10.977
  O      540.462     827.268     -13.111
  H      540.414     826.325     -10.653
  H      544.356     828.888     -11.167
  H      544.370     827.232     -11.828
  H      543.726     827.547     -10.201
  H      541.868     818.559     -15.967
  H      540.505     819.628     -16.193
  H      540.657     818.706     -14.716

 3  4  5  6  7  8  9  10  11  12  22  25  29  30  31  32 0
 6-311+G(2d,p)
 ****
 33  36  37 0
 6-311+G(2d,p)
 ****
 1  2  13  14  15  16  17  18  19  20  21  23  24  26 0
 3-21G
 ****
 27  28  34  35  38  39  40  41  42  43  44  45  46  47  48 0
 3-21G
 ****


