%nproc=1
%NoSave
%Mem=1900MB
#P OB98/GEN NMR

erre ene a

0 1
  C       39.322       1.358      30.789
  O       39.204       1.811      29.458
  H       38.606       0.549      30.949
  H       39.087       2.173      31.479
  H       40.326       0.979      30.991
  P       40.327       2.790      28.869
  C       40.548       1.345      26.745
  O       40.273       2.635      27.272
  C       40.012       1.216      25.316
  O       38.558       1.298      25.350
  C       40.511       2.311      24.361
  O       40.580       1.737      23.050
  C       39.384       3.321      24.436
  O       39.425       4.223      23.353
  C       38.170       2.391      24.497
  N       36.970       3.070      24.983
  C       36.406       4.016      24.137
  O       36.887       4.314      23.043
  N       35.289       4.650      24.603
  C       34.730       4.477      25.836
  O       33.746       5.097      26.215
  C       35.395       3.495      26.707
  C       36.466       2.843      26.247
  O       41.688       2.645      29.464
  O       39.731       4.258      29.096
  H       39.314       3.741      22.506
  H       40.456       4.898      29.227
  H       34.861       5.332      23.997
  H       34.983       3.340      27.694
  H       36.978       2.113      26.864
  H       37.946       1.980      23.504
  H       39.457       3.913      25.355
  H       41.479       2.724      24.650
  H       40.264       0.218      24.937
  H       40.064       0.606      27.391
  H       41.629       1.170      26.753
  P       41.909       1.811      22.155
  C       42.276      -0.731      22.345
  O       42.146       0.382      21.465
  O       43.103       2.349      22.873
  O       41.517       2.756      20.923
  H       42.314       3.207      20.588
  H       42.429      -1.622      21.773
  H       41.384      -0.831      22.928
  H       43.112      -0.576      22.995

 6  7  8  9  10  11  12  13  14  15  16  26  31  32  33  34  35 0
 6-311+G(2d,p)
 ****
 36  37 0
 6-311+G(2d,p)
 ****
 1  2  3  4  5  17  18  19  20  21  22  23  24  25 0
 3-21G
 ****
 27  28  29  30  38  39  40  41  42  43  44  45 0
 3-21G
 ****


