%nproc=1
%NoSave
%Mem=1900MB
#P OB98/GEN NMR

erre ene a

0 1
  C      -16.305     235.667     320.747
  O      -17.202     234.688     321.229
  H      -16.269     235.603     319.657
  H      -15.302     235.491     321.143
  H      -16.647     236.666     321.032
  P      -17.358     234.572     322.821
  C      -15.890     232.634     323.738
  O      -17.143     233.025     323.191
  C      -16.009     231.238     324.346
  O      -16.593     231.326     325.663
  C      -16.918     230.296     323.563
  O      -16.278     229.761     322.421
  C      -17.213     229.244     324.620
  O      -16.173     228.259     324.689
  C      -17.276     230.081     325.917
  N      -18.650     230.290     326.374
  C      -19.254     229.195     326.980
  O      -18.692     228.110     327.132
  N      -20.552     229.374     327.374
  C      -21.297     230.503     327.192
  O      -22.480     230.575     327.503
  C      -20.598     231.634     326.557
  C      -19.332     231.476     326.172
  O      -18.927     234.802     323.049
  O      -16.527     235.527     323.611
  H      -19.086     235.707     323.374
  H      -16.396     227.679     325.443
  H      -21.011     228.585     327.809
  H      -21.160     232.546     326.401
  H      -18.796     232.286     325.685
  H      -16.727     229.577     326.721
  H      -18.141     228.711     324.404
  H      -17.850     230.805     323.297
  H      -14.999     230.813     324.440
  H      -15.596     233.340     324.518
  H      -15.136     232.649     322.945
  P      -16.482     230.498     321.013
  C      -17.475     228.430     319.732
  O      -16.415     229.358     319.884
  O      -15.090     231.271     320.866
  O      -17.693     231.367     320.958
  H      -14.334     230.773     321.223
  H      -17.247     227.755     318.934
  H      -18.380     228.955     319.507
  H      -17.599     227.879     320.641

 6  7  8  9  10  11  12  13  14  15  16  27  31  32  33  34  35 0
 6-311+G(2d,p)
 ****
 36  37 0
 6-311+G(2d,p)
 ****
 1  2  3  4  5  17  18  19  20  21  22  23  24  25 0
 3-21G
 ****
 26  28  29  30  38  39  40  41  42  43  44  45 0
 3-21G
 ****


