%nproc=1
%NoSave
%Mem=1900MB
#P OB98/GEN NMR

erre ene a

0 1
  C     -263.491    -149.685    -241.475
  O     -262.346    -148.856    -241.293
  P     -261.018    -149.192    -242.125
  C     -261.282    -147.294    -243.949
  O     -261.168    -148.660    -243.623
  C     -260.003    -146.836    -244.669
  O     -259.769    -147.649    -245.839
  C     -260.059    -145.385    -245.133
  O     -259.653    -144.483    -244.121
  C     -259.134    -145.405    -246.334
  O     -257.758    -145.391    -245.905
  C     -259.487    -146.772    -246.967
  N     -260.627    -146.827    -247.906
  C     -260.472    -146.381    -249.215
  O     -259.427    -145.919    -249.669
  N     -261.572    -146.485    -250.024
  C     -262.734    -147.135    -249.723
  O     -263.665    -147.248    -250.508
  C     -262.795    -147.722    -248.380
  C     -261.768    -147.537    -247.546
  O     -261.057    -150.781    -242.277
  O     -259.751    -148.722    -241.481
  H     -257.205    -145.413    -246.706
  H     -260.308    -151.188    -241.805
  H     -261.498    -146.100    -250.953
  H     -263.679    -148.284    -248.117
  H     -261.804    -147.968    -246.549
  H     -258.621    -147.185    -247.498
  H     -259.266    -144.519    -246.952
  H     -261.065    -145.140    -245.492
  H     -259.152    -146.972    -243.985
  H     -261.442    -146.689    -243.053
  H     -262.155    -147.141    -244.594
  P     -259.994    -142.925    -244.255
  C     -261.647    -143.065    -242.299
  O     -261.479    -142.755    -243.669
  O     -259.754    -142.314    -245.595
  O     -259.094    -142.243    -243.115
  H     -258.248    -141.907    -243.494
  H     -262.653    -142.759    -241.991
  H     -260.913    -142.528    -241.692
  H     -261.545    -144.141    -242.145
  H     -264.288    -149.333    -240.855
  H     -263.248    -150.692    -241.207
  H     -263.796    -149.652    -242.500

 3  4  5  6  7  8  9  10  11  12  13  23  28  29  30  31  32 0
 6-311+G(2d,p)
 ****
 33  34 0
 6-311+G(2d,p)
 ****
 1  2  14  15  16  17  18  19  20  21  22  24  25  26  27 0
 3-21G
 ****
 35  36  37  38  39  40  41  42  43  44  45 0
 3-21G
 ****


