%nproc=1
%NoSave
%Mem=1900MB
#P OB98/GEN NMR

erre ene a

0 1
  C     -424.249     438.944    -378.168
  O     -424.762     437.803    -377.511
  H     -423.162     438.999    -378.046
  H     -424.480     438.868    -379.234
  H     -424.714     439.847    -377.767
  P     -424.426     437.670    -375.948
  C     -426.494     439.085    -375.277
  O     -425.077     438.956    -375.239
  C     -427.088     438.817    -373.899
  O     -426.437     439.658    -372.909
  C     -428.571     439.134    -373.768
  O     -429.385     438.105    -374.316
  C     -428.717     439.219    -372.249
  O     -428.815     437.890    -371.703
  C     -427.382     439.856    -371.827
  N     -428.743     443.443    -368.400
  C     -428.765     442.097    -368.350
  N     -428.400     441.200    -369.295
  C     -427.949     441.836    -370.392
  C     -427.870     443.207    -370.588
  C     -428.287     444.026    -369.538
  N     -428.271     445.408    -369.598
  N     -427.349     443.489    -371.836
  C     -427.124     442.314    -372.390
  N     -427.480     441.280    -371.561
  O     -422.855     437.976    -375.873
  O     -424.761     436.361    -375.322
  H     -429.567     437.459    -372.150
  H     -422.458     437.417    -375.177
  H     -429.122     441.669    -367.417
  H     -426.706     442.162    -373.379
  H     -426.968     439.370    -370.936
  H     -429.598     439.773    -371.936
  H     -428.812     440.118    -374.208
  H     -426.887     437.772    -373.636
  H     -426.905     438.361    -375.987
  H     -428.400     445.931    -368.753
  H     -427.930     445.838    -370.459
  H     -426.747     440.098    -375.606
  P     -430.855     438.508    -374.827
  C     -430.254     437.996    -377.313
  O     -430.661     438.974    -376.357
  O     -431.137     439.890    -374.060
  O     -431.917     437.507    -374.581
  H     -432.098     440.027    -373.978
  H     -430.169     438.453    -378.277
  H     -430.981     437.212    -377.353
  H     -429.307     437.589    -377.026

 6  7  8  9  10  11  12  13  14  15  25  28  32  33  34  35 0
 6-311+G(2d,p)
 ****
 36  39  40 0
 6-311+G(2d,p)
 ****
 1  2  3  4  5  16  17  18  19  20  21  22  23  24 0
 3-21G
 ****
 26  27  29  30  31  37  38  41  42  43  44  45  46  47  48 0
 3-21G
 ****


