%nproc=1
%NoSave
%Mem=1900MB
#P OB98/GEN NMR

erre ene a

0 1
  C      267.190     -29.492      13.741
  O      267.339     -28.182      14.259
  P      267.120     -27.956      15.832
  C      265.023     -26.448      15.536
  O      265.562     -27.650      16.073
  C      264.090     -25.774      16.541
  O      262.960     -26.644      16.819
  C      264.755     -25.453      17.883
  O      264.196     -24.244      18.418
  C      264.310     -26.592      18.781
  O      264.366     -26.230      20.160
  C      262.896     -26.841      18.246
  N      261.311     -29.886      21.958
  C      261.468     -28.513      21.957
  N      261.255     -27.881      23.130
  N      261.798     -27.822      20.896
  C      261.988     -28.590      19.790
  C      261.848     -29.952      19.665
  C      261.491     -30.706      20.854
  O      261.362     -31.928      20.928
  N      262.087     -30.368      18.380
  C      262.416     -29.265      17.735
  N      262.403     -28.166      18.555
  O      267.826     -26.544      16.092
  O      267.707     -29.018      16.703
  H      263.922     -25.365      20.246
  H      268.676     -26.677      16.548
  H      261.066     -30.373      22.804
  H      262.692     -29.212      16.692
  H      262.182     -26.113      18.647
  H      264.957     -27.466      18.630
  H      261.063     -28.362      23.999
  H      265.847     -25.362      17.841
  H      261.407     -26.882      23.166
  H      263.684     -24.860      16.086
  H      264.466     -26.683      14.629
  H      265.839     -25.769      15.268
  P      265.217     -23.017      18.603
  C      265.678     -23.695      21.077
  O      266.210     -23.443      19.787
  O      264.309     -21.874      19.256
  O      265.872     -22.570      17.336
  H      264.672     -20.991      19.055
  H      265.856     -24.746      21.328
  H      264.604     -23.490      21.128
  H      266.193     -23.060      21.803
  H      267.366     -29.480      12.686
  H      266.197     -29.841      13.933
  H      267.895     -30.144      14.213

 3  4  5  6  7  8  9  10  11  12  23  26  30  31 0
 6-311+G(2d,p)
 ****
 33  35  36  37  38 0
 6-311+G(2d,p)
 ****
 1  2  13  14  15  16  17  18  19  20  21  22  24  25 0
 3-21G
 ****
 27  28  29  32  34  39  40  41  42  43  44  45  46  47  48  49 0
 3-21G
 ****


