%nproc=1
%NoSave
%Mem=1900MB
#P OB98/GEN NMR

erre ene a

0 1
  C      348.341     319.042       3.556
  O      348.549     318.155       4.658
  P      350.035     318.050       5.252
  C      349.659     319.444       7.421
  O      349.959     318.173       6.846
  C      350.195     319.514       8.853
  O      349.460     318.644       9.730
  C      351.645     319.068       8.970
  O      352.516     320.093       8.531
  C      351.759     318.759      10.458
  O      352.166     319.911      11.214
  C      350.324     318.331      10.841
  N      350.231     316.926      11.200
  C      350.218     316.643      12.571
  O      350.314     317.558      13.393
  N      350.140     315.333      12.972
  C      350.098     314.383      12.081
  N      350.021     313.106      12.538
  C      350.129     314.643      10.626
  C      350.203     315.919      10.261
  O      350.708     319.428       4.803
  O      350.806     316.869       4.747
  H      352.475     319.567      12.076
  H      351.657     319.305       4.632
  H      350.100     313.821       9.924
  H      350.226     316.198       9.214
  H      349.960     318.925      11.689
  H      352.504     317.979      10.646
  H      351.803     318.153       8.389
  H      350.089     320.549       9.214
  H      349.997     312.973      13.546
  H      348.579     319.606       7.415
  H      349.987     312.304      11.938
  H      350.096     320.227       6.796
  P      353.599     319.717       7.412
  C      352.926     321.906       6.255
  O      354.001     321.120       6.736
  O      352.693     319.049       6.277
  O      354.733     318.831       7.821
  H      353.248     318.687       5.564
  H      353.305     322.906       6.016
  H      352.146     322.007       7.013
  H      352.513     321.462       5.343
  H      347.312     319.013       3.264
  H      348.954     318.739       2.733
  H      348.601     320.039       3.846

 3  4  5  6  7  8  9  10  11  12  13  21  23  27  28  29  30  32 0
 6-311+G(2d,p)
 ****
 34  35 0
 6-311+G(2d,p)
 ****
 1  2  14  15  16  17  18  19  20  22  24  25  26 0
 3-21G
 ****
 31  33  36  37  38  39  40  41  42  43  44  45  46 0
 3-21G
 ****


