%nproc=1
%NoSave
%Mem=1900MB
#P OB98/GEN NMR

erre ene a

0 1
  C       89.810    -226.219     155.715
  O       88.873    -226.734     154.790
  H       90.356    -225.402     155.238
  H       90.524    -226.991     156.013
  H       89.296    -225.827     156.598
  P       88.017    -228.028     155.213
  C       89.609    -229.479     153.773
  O       88.270    -229.074     154.016
  C       89.792    -229.828     152.294
  O       91.177    -230.110     151.997
  C       89.035    -231.067     151.826
  O       87.637    -230.856     151.686
  C       89.725    -231.311     150.491
  O       89.245    -230.364     149.521
  C       91.203    -231.022     150.863
  N       91.952    -232.234     151.198
  C       92.467    -232.970     150.121
  O       92.283    -232.596     148.963
  N       93.146    -234.135     150.380
  C       93.287    -234.545     151.605
  N       93.928    -235.729     151.806
  C       92.778    -233.791     152.772
  C       92.122    -232.664     152.496
  O       86.583    -227.791     155.561
  O       88.861    -228.693     156.403
  H       89.669    -230.581     148.672
  H       88.366    -229.492     156.708
  H       92.911    -234.180     153.771
  H       91.704    -232.061     153.304
  H       91.714    -230.505     150.044
  H       89.544    -232.313     150.091
  H       89.237    -231.919     152.486
  H       89.515    -228.937     151.709
  H       94.226    -236.237     150.982
  H       89.828    -230.344     154.408
  H       93.834    -236.242     152.676
  H       90.302    -228.668     154.022
  P       86.651    -232.057     152.085
  C       87.526    -233.668     150.226
  O       86.432    -232.935     150.758
  O       85.249    -231.319     152.287
  O       87.056    -232.861     153.285
  H       85.106    -231.082     153.225
  H       87.211    -234.193     149.349
  H       87.874    -234.369     150.956
  H       88.317    -232.994     149.973

 6  7  8  9  10  11  12  13  14  15  16  26  30  31  32  33  35 0
 6-311+G(2d,p)
 ****
 37  38 0
 6-311+G(2d,p)
 ****
 1  2  3  4  5  17  18  19  20  21  22  23  24  25 0
 3-21G
 ****
 27  28  29  34  36  39  40  41  42  43  44  45  46 0
 3-21G
 ****


