%nproc=1
%NoSave
%Mem=1900MB
#P OB98/GEN NMR

erre ene a

0 1
  C       92.318     202.683     249.480
  O       92.762     203.122     248.190
  P       91.652     203.486     247.096
  C       91.318     200.989     246.454
  O       91.613     202.305     246.013
  C       90.680     200.179     245.321
  O       89.419     200.748     244.904
  C       91.539     200.104     244.066
  O       92.525     199.084     244.162
  C       90.500     199.720     243.024
  O       90.235     198.305     243.093
  C       89.273     200.518     243.480
  N       87.193     202.869     239.514
  C       87.104     201.550     239.913
  N       86.341     200.739     239.148
  N       87.707     201.069     240.968
  C       88.419     201.999     241.648
  C       88.585     203.331     241.352
  C       87.925     203.848     240.174
  O       87.979     205.003     239.764
  N       89.385     203.952     242.273
  C       89.689     203.003     243.138
  N       89.141     201.793     242.793
  O       92.332     204.687     246.283
  O       90.333     203.887     247.669
  H       91.077     197.853     242.890
  H       91.644     205.266     245.909
  H       86.712     203.186     238.690
  H       90.297     203.140     244.022
  H       88.336     199.971     243.328
  H       90.837     199.927     242.004
  H       85.809     201.054     238.352
  H       91.975     201.080     243.823
  H       86.238     199.777     239.444
  H       90.496     199.162     245.692
  H       90.645     201.015     247.315
  H       92.240     200.520     246.812
  P       93.831     199.388     245.043
  C       95.234     199.475     242.861
  O       95.080     198.927     244.153
  O       93.745     198.282     246.196
  O       93.899     200.767     245.602
  H       94.141     198.628     247.018
  H       96.210     199.179     242.470
  H       95.185     200.566     242.893
  H       94.457     199.089     242.194
  H       93.167     202.478     250.099
  H       91.733     201.794     249.372
  H       91.723     203.449     249.932

 3  4  5  6  7  8  9  10  11  12  23  26  30  31 0
 6-311+G(2d,p)
 ****
 33  35  36  37  38 0
 6-311+G(2d,p)
 ****
 1  2  13  14  15  16  17  18  19  20  21  22  24  25 0
 3-21G
 ****
 27  28  29  32  34  39  40  41  42  43  44  45  46  47  48  49 0
 3-21G
 ****


