%nproc=1
%NoSave
%Mem=1900MB
#P OB98/GEN NMR

erre ene a

0 1
  C     1366.992     340.811    -118.529
  O     1365.860     340.329    -119.216
  P     1365.326     338.872    -118.818
  C     1362.916     339.065    -119.812
  O     1364.194     338.474    -119.893
  C     1362.156     338.840    -121.121
  O     1362.179     337.447    -121.478
  C     1360.692     339.257    -121.063
  O     1360.521     340.644    -121.164
  C     1360.119     338.482    -122.244
  O     1360.324     339.204    -123.480
  C     1360.952     337.189    -122.229
  N     1360.203     336.058    -121.651
  C     1359.010     335.749    -122.301
  O     1358.563     336.404    -123.267
  N     1358.311     334.703    -121.764
  C     1358.649     333.966    -120.655
  O     1357.943     333.093    -120.209
  C     1359.931     334.365    -120.016
  C     1360.617     335.375    -120.543
  O     1364.472     339.124    -117.462
  O     1366.400     337.846    -118.616
  H     1361.297     339.168    -123.666
  H     1364.599     338.377    -116.863
  H     1357.439     334.440    -122.240
  H     1360.218     333.804    -119.144
  H     1361.553     335.689    -120.079
  H     1361.265     336.926    -123.242
  H     1359.030     338.329    -122.157
  H     1360.255     338.881    -120.125
  H     1362.680     339.396    -121.916
  H     1363.026     340.123    -119.615
  H     1362.367     338.622    -118.963
  P     1359.525     341.361    -120.143
  C     1360.786     343.586    -120.822
  O     1359.560     342.919    -120.534
  O     1360.398     341.283    -118.777
  O     1358.188     340.704    -120.060
  H     1361.354     341.336    -118.966
  H     1361.472     342.911    -121.336
  H     1361.225     343.924    -119.887
  H     1360.571     344.423    -121.461
  H     1367.240     341.787    -118.890
  H     1367.817     340.150    -118.693
  H     1366.779     340.862    -117.482

 3  4  5  6  7  8  9  10  11  12  13  23  28  29  30  31  32 0
 6-311+G(2d,p)
 ****
 33  34 0
 6-311+G(2d,p)
 ****
 1  2  14  15  16  17  18  19  20  21  22  24  25  26 0
 3-21G
 ****
 27  35  36  37  38  39  40  41  42  43  44  45 0
 3-21G
 ****


