%nproc=1
%NoSave
%Mem=1900MB
#P OB98/GEN NMR

erre ene a

0 1
  C      -23.327     399.440    -440.598
  O      -24.005     399.303    -439.361
  P      -25.349     400.148    -439.151
  C      -27.098     398.459    -440.100
  O      -26.390     399.677    -440.278
  C      -28.516     398.752    -439.609
  O      -28.477     399.289    -438.265
  C      -29.246     399.793    -440.448
  O      -29.757     399.232    -441.644
  C      -30.337     400.256    -439.484
  O      -31.459     399.360    -439.514
  C      -29.610     400.175    -438.123
  N      -29.205     401.486    -437.627
  C      -29.835     401.916    -436.460
  O      -30.701     401.254    -435.884
  N      -29.469     403.147    -436.002
  C      -28.597     404.009    -436.607
  O      -28.351     405.128    -436.182
  C      -27.982     403.512    -437.853
  C      -28.313     402.302    -438.298
  O      -24.947     401.630    -439.599
  O      -25.894     400.119    -437.759
  H      -31.149     398.512    -439.141
  H      -25.414     402.286    -439.044
  H      -29.896     403.471    -435.147
  H      -27.284     404.166    -438.363
  H      -27.882     401.922    -439.220
  H      -30.261     399.711    -437.375
  H      -30.712     401.248    -439.731
  H      -28.577     400.638    -440.662
  H      -29.080     397.809    -439.586
  H      -26.572     397.837    -439.370
  H      -27.126     397.916    -441.054
  P      -29.867     400.210    -442.914
  C      -27.440     400.065    -443.885
  O      -28.384     400.788    -443.123
  O      -30.701     401.417    -442.287
  O      -30.500     399.559    -444.103
  H      -30.507     401.551    -441.349
  H      -27.918     399.547    -444.718
  H      -26.940     399.338    -443.243
  H      -26.696     400.763    -444.280
  H      -22.454     398.822    -440.596
  H      -23.041     400.462    -440.737
  H      -23.975     399.140    -441.395

 3  4  5  6  7  8  9  10  11  12  13  23  28  29  30  31  32 0
 6-311+G(2d,p)
 ****
 33  34 0
 6-311+G(2d,p)
 ****
 1  2  14  15  16  17  18  19  20  21  22  24  25  26 0
 3-21G
 ****
 27  35  36  37  38  39  40  41  42  43  44  45 0
 3-21G
 ****


