%nproc=1
%NoSave
%Mem=1900MB
#P OB98/GEN NMR

erre ene a

0 1
  C       18.456     333.570     -48.078
  O       19.853     333.624     -48.309
  P       20.884     334.009     -47.137
  C       22.066     336.239     -46.571
  O       20.915     335.613     -47.110
  C       21.682     337.547     -45.876
  O       20.780     337.243     -44.781
  C       22.870     338.326     -45.289
  O       22.572     339.720     -45.432
  C       22.856     337.921     -43.830
  O       23.524     338.854     -42.996
  C       21.349     337.800     -43.576
  N       21.039     336.974     -42.417
  C       20.597     337.616     -41.263
  O       20.495     338.843     -41.217
  N       20.274     336.853     -40.166
  C       20.462     335.569     -40.193
  N       20.070     334.849     -39.106
  C       21.032     334.862     -41.359
  C       21.270     335.617     -42.428
  O       22.222     333.363     -47.243
  O       20.097     333.669     -45.791
  H       24.408     339.023     -43.370
  H       20.183     332.721     -45.522
  H       21.192     333.795     -41.324
  H       21.664     335.180     -43.336
  H       20.905     338.796     -43.453
  H       23.353     336.950     -43.717
  H       23.811     338.104     -45.800
  H       21.131     338.170     -46.589
  H       19.530     335.345     -38.405
  H       22.752     336.467     -47.390
  H       19.883     333.857     -39.177
  H       22.569     335.557     -45.877
  P       23.768     340.715     -45.834
  C       25.968     341.536     -44.733
  O       24.739     340.860     -44.570
  O       23.015     342.137     -45.842
  O       24.412     340.478     -47.161
  H       23.493     342.745     -46.436
  H       26.494     341.545     -43.770
  H       25.802     342.569     -45.046
  H       26.594     341.022     -45.467
  H       17.955     333.297     -48.983
  H       18.111     334.530     -47.755
  H       18.247     332.843     -47.321

 3  4  5  6  7  8  9  10  11  12  13  23  27  28  29  30  32 0
 6-311+G(2d,p)
 ****
 34  35 0
 6-311+G(2d,p)
 ****
 1  2  14  15  16  17  18  19  20  21  22  24  25  26 0
 3-21G
 ****
 31  33  36  37  38  39  40  41  42  43  44  45  46 0
 3-21G
 ****


