%nproc=1
%NoSave
%Mem=1900MB
#P OB98/GEN NMR

erre ene a

0 1
  C      229.586    -262.737     407.330
  O      230.559    -263.778     407.479
  P      232.063    -263.480     407.951
  C      232.020    -265.372     409.701
  O      232.687    -264.827     408.566
  C      232.851    -266.469     410.373
  O      232.792    -267.695     409.619
  C      234.334    -266.138     410.517
  O      234.549    -265.263     411.605
  C      234.938    -267.529     410.681
  O      234.796    -267.984     412.037
  C      234.059    -268.368     409.743
  N      237.880    -270.612     407.191
  C      237.537    -270.629     408.498
  N      236.503    -270.003     409.097
  C      235.773    -269.314     408.201
  C      236.007    -269.201     406.841
  C      237.124    -269.891     406.332
  N      237.482    -269.858     405.004
  N      235.063    -268.390     406.248
  C      234.260    -268.039     407.235
  N      234.647    -268.570     408.434
  O      232.199    -262.284     408.837
  O      232.886    -263.275     406.596
  H      233.856    -267.896     412.282
  H      233.645    -262.682     406.755
  H      238.172    -271.224     409.143
  H      233.386    -267.403     407.127
  H      233.849    -269.358     410.164
  H      236.004    -267.565     410.433
  H      234.712    -265.688     409.591
  H      232.411    -266.670     411.361
  H      231.062    -265.793     409.371
  H      238.319    -270.352     404.724
  H      236.949    -269.285     404.366
  H      231.821    -264.565     410.414
  P      234.865    -263.716     411.347
  C      233.602    -262.716     413.344
  O      234.865    -262.985     412.776
  O      234.025    -263.051     410.303
  O      236.414    -263.701     410.942
  H      236.583    -262.956     410.341
  H      233.186    -261.814     412.890
  H      233.730    -262.543     414.421
  H      232.918    -263.552     413.197
  H      228.657    -263.160     407.008
  H      229.928    -262.031     406.602
  H      229.446    -262.242     408.268

 3  4  5  6  7  8  9  10  11  12  22  25  29  30  31  32 0
 6-311+G(2d,p)
 ****
 33  36  37 0
 6-311+G(2d,p)
 ****
 1  2  13  14  15  16  17  18  19  20  21  23  24  26 0
 3-21G
 ****
 27  28  34  35  38  39  40  41  42  43  44  45  46  47  48 0
 3-21G
 ****


