%nproc=1
%NoSave
%Mem=1900MB
#P OB98/GEN NMR

erre ene a

0 1
  C       -6.133     -58.274     284.028
  O       -6.512     -57.308     283.059
  H       -5.166     -58.689     283.741
  H       -6.871     -59.080     284.058
  H       -6.047     -57.809     285.011
  P       -7.913     -56.567     283.311
  C       -9.263     -58.586     282.371
  O       -9.012     -57.727     283.470
  C      -10.448     -59.525     282.681
  O      -11.529     -58.724     283.268
  C      -11.036     -60.224     281.439
  O      -11.584     -61.480     281.866
  C      -12.157     -59.268     281.050
  O      -13.034     -59.879     280.126
  C      -12.692     -58.938     282.437
  N      -17.517     -57.235     282.170
  C      -16.999     -58.487     282.176
  N      -15.704     -58.865     282.268
  C      -14.906     -57.785     282.372
  C      -15.285     -56.449     282.387
  C      -16.669     -56.184     282.267
  N      -17.188     -54.911     282.258
  N      -14.171     -55.628     282.497
  C      -13.145     -56.450     282.550
  N      -13.537     -57.760     282.474
  O       -8.250     -55.916     281.885
  O       -7.914     -55.540     284.397
  H      -12.568     -60.057     279.281
  H       -7.945     -54.986     281.864
  H      -17.731     -59.304     282.098
  H      -12.111     -56.162     282.650
  H      -13.261     -59.767     282.872
  H      -11.755     -58.380     280.562
  H      -10.297     -60.400     280.653
  H      -10.139     -60.246     283.445
  H       -8.361     -59.187     282.180
  H       -9.503     -57.992     281.471
  H      -18.185     -54.812     282.152
  H      -16.561     -54.120     282.312
  P      -10.831     -62.846     281.489
  C      -12.181     -63.035     279.259
  O      -10.912     -63.059     279.900
  O      -11.848     -63.960     282.032
  O       -9.471     -63.030     282.099
  H      -11.355     -64.760     282.263
  H      -12.053     -63.192     278.208
  H      -12.646     -62.085     279.424
  H      -12.799     -63.810     279.663

 6  7  8  9  10  11  12  13  14  15  25  28  32  33  34  35 0
 6-311+G(2d,p)
 ****
 36  37  40 0
 6-311+G(2d,p)
 ****
 1  2  3  4  5  16  17  18  19  20  21  22  23  24 0
 3-21G
 ****
 26  27  29  30  31  38  39 41  42  43  44  45  46  47  48 0
 3-21G
 ****


