%nproc=1
%NoSave
%Mem=1900MB
#P OB98/GEN NMR

erre ene a

0 1
  C      -12.281      72.397    -139.742
  O      -13.579      71.964    -139.338
  P      -14.909      72.834    -139.476
  C      -16.308      70.616    -139.461
  O      -16.141      71.941    -138.980
  C      -16.840      69.646    -138.392
  O      -15.867      69.521    -137.324
  C      -18.117      70.201    -137.753
  O      -19.369      70.007    -138.383
  C      -18.069      69.714    -136.311
  O      -18.785      68.491    -136.119
  C      -16.570      69.499    -136.063
  N      -16.791      71.749    -131.473
  C      -17.648      70.824    -132.033
  N      -18.730      70.484    -131.299
  N      -17.468      70.288    -133.211
  C      -16.396      70.781    -133.873
  C      -15.484      71.716    -133.433
  C      -15.659      72.257    -132.099
  O      -14.923      73.070    -131.554
  N      -14.536      71.984    -134.387
  C      -14.888      71.236    -135.414
  N      -16.010      70.477    -135.147
  O      -15.077      73.560    -140.768
  O      -14.749      73.941    -138.312
  H      -18.791      68.294    -135.167
  H      -15.186      74.755    -138.639
  H      -16.964      72.112    -130.550
  H      -14.368      71.195    -136.363
  H      -16.382      68.514    -135.620
  H      -18.527      70.453    -135.639
  H      -18.988      70.946    -130.442
  H      -17.998      71.290    -137.696
  H      -19.470      69.975    -131.790
  H      -16.965      68.641    -138.803
  H      -15.329      70.285    -139.824
  H      -16.974      70.612    -140.324
  P      -20.118      71.052    -139.339
  C      -21.114      69.960    -141.435
  O      -21.317      70.283    -140.069
  O      -19.081      71.293    -140.538
  O      -20.494      72.344    -138.694
  H      -19.319      72.096    -141.036
  H      -22.081      69.732    -141.893
  H      -20.465      69.087    -141.514
  H      -20.662      70.803    -141.969
  H      -11.568      71.625    -139.540
  H      -12.014      73.280    -139.199
  H      -12.287      72.611    -140.790

 3  4  5  6  7  8  9  10  11  12  23  26  30  31 0
 6-311+G(2d,p)
 ****
 33  35  36  37  38 0
 6-311+G(2d,p)
 ****
 1  2  13  14  15  16  17  18  19  20  21  22  24  25 0
 3-21G
 ****
 27  28  29  32  34  39  40  41  42  43  44  45  46  47  48  49 0
 3-21G
 ****


