%nproc=1
%NoSave
%Mem=1900MB
#P OB98/GEN NMR

erre ene a

0 1
  C      -80.153    -167.539    -281.086
  O      -80.252    -168.964    -281.104
  P      -79.935    -169.742    -282.470
  C      -78.080    -171.285    -281.568
  O      -78.398    -170.204    -282.437
  C      -77.031    -170.863    -280.539
  O      -77.515    -169.811    -279.681
  C      -76.619    -171.988    -279.605
  O      -75.776    -172.914    -280.267
  C      -75.968    -171.212    -278.470
  O      -74.608    -170.875    -278.791
  C      -76.831    -169.932    -278.416
  N      -77.765    -169.916    -277.300
  C      -77.210    -169.671    -276.040
  O      -75.994    -169.524    -275.914
  N      -78.047    -169.616    -274.953
  C      -79.321    -169.797    -275.111
  N      -80.103    -169.728    -274.000
  C      -79.943    -170.069    -276.421
  C      -79.114    -170.122    -277.460
  O      -80.365    -169.052    -283.721
  O      -80.717    -171.129    -282.276
  H      -74.105    -171.712    -278.741
  H      -80.995    -171.459    -283.153
  H      -81.013    -170.206    -276.502
  H      -79.486    -170.319    -278.460
  H      -76.188    -169.046    -278.328
  H      -75.947    -171.789    -277.541
  H      -77.513    -172.504    -279.232
  H      -76.150    -170.491    -281.084
  H      -79.650    -169.551    -273.112
  H      -77.708    -172.128    -282.156
  H      -81.110    -169.804    -274.028
  H      -78.999    -171.624    -281.077
  P      -76.428    -174.291    -280.765
  C      -74.582    -175.571    -282.058
  O      -75.701    -174.709    -282.128
  O      -77.889    -173.842    -281.249
  O      -76.509    -175.360    -279.725
  H      -78.527    -174.557    -281.071
  H      -74.410    -176.001    -283.050
  H      -74.746    -176.384    -281.346
  H      -73.697    -174.999    -281.763
  H      -80.394    -167.177    -280.108
  H      -80.836    -167.125    -281.798
  H      -79.155    -167.248    -281.338

 3  4  5  6  7  8  9  10  11  12  13  23  27  28  29  30  32 0
 6-311+G(2d,p)
 ****
 34  35 0
 6-311+G(2d,p)
 ****
 1  2  14  15  16  17  18  19  20  21  22  24  25  26 0
 3-21G
 ****
 31  33  36  37  38  39  40  41  42  43  44  45  46 0
 3-21G
 ****


