%nproc=1
%NoSave
%Mem=1900MB
#P OB98/GEN NMR

erre ene a

0 1
  C      449.919    -276.528    -184.167
  O      449.926    -277.386    -183.039
  P      449.066    -276.949    -181.755
  C      446.802    -277.277    -182.961
  O      447.679    -276.366    -182.315
  C      445.353    -276.969    -182.628
  O      445.185    -276.976    -181.181
  C      444.859    -275.607    -183.142
  O      443.546    -275.753    -183.699
  C      444.726    -274.778    -181.873
  O      443.777    -273.724    -182.017
  C      444.328    -275.863    -180.871
  N      441.875    -273.966    -176.881
  C      441.377    -274.464    -178.069
  N      440.035    -274.394    -178.235
  N      442.121    -274.980    -179.009
  C      443.442    -275.019    -178.698
  C      444.051    -274.569    -177.550
  C      443.220    -273.944    -176.542
  O      443.617    -273.401    -175.508
  N      445.406    -274.794    -177.588
  C      445.614    -275.372    -178.753
  N      444.458    -275.489    -179.482
  O      449.847    -275.647    -181.239
  O      448.957    -277.974    -180.682
  H      442.904    -274.140    -182.140
  H      450.106    -275.772    -180.305
  H      441.260    -273.565    -176.200
  H      446.577    -275.697    -179.118
  H      443.285    -276.175    -181.041
  H      445.696    -274.336    -181.626
  H      439.399    -274.038    -177.540
  H      445.522    -275.137    -183.871
  H      439.648    -274.772    -179.092
  H      444.720    -277.778    -183.021
  H      447.040    -278.297    -182.633
  H      446.965    -277.216    -184.044
  P      443.191    -274.777    -184.928
  C      442.426    -276.488    -186.740
  O      443.445    -275.635    -186.253
  O      444.390    -273.722    -184.918
  O      441.851    -274.128    -184.813
  H      444.111    -272.885    -185.336
  H      441.479    -276.336    -186.210
  H      442.737    -277.527    -186.611
  H      442.274    -276.289    -187.802
  H      450.532    -276.947    -184.938
  H      450.303    -275.569    -183.888
  H      448.917    -276.420    -184.527

 3  4  5  6  7  8  9  10  11  12  23  26  30  31  33  0
 6-311+G(2d,p)
 ****
 35  36  37  38 0
 6-311+G(2d,p)
 ****
 1  2  13  14  15  16  17  18  19  20  21  22  24  25  27  28  29 0
 3-21G
 ****
 32  34  39  40  41  42  43  44  45  46  47  48  49 0
 3-21G
 ****


