%nproc=1
%NoSave
%Mem=1900MB
#P OB98/GEN NMR

erre ene a

0 1
  C      661.357     190.579     798.893
  O      662.534     189.998     799.418
  P      663.926     190.349     798.692
  C      663.556     188.686     796.713
  O      663.728     190.044     797.134
  C      664.096     188.504     795.296
  O      663.517     189.485     794.420
  C      665.602     188.669     795.170
  O      666.289     187.534     795.663
  C      665.733     188.897     793.660
  O      665.639     187.633     792.974
  C      664.481     189.752     793.359
  N      664.388     193.989     790.473
  C      664.064     192.703     790.211
  N      664.126     191.630     791.013
  C      664.599     191.990     792.233
  C      665.000     193.240     792.648
  C      664.881     194.277     791.715
  N      665.226     195.579     791.987
  N      665.450     193.209     793.952
  C      665.301     191.951     794.318
  N      664.777     191.169     793.318
  O      664.904     189.181     799.176
  O      664.465     191.704     799.013
  H      664.694     187.368     792.976
  H      665.815     189.511     799.274
  H      663.680     192.520     789.205
  H      665.560     191.558     795.293
  H      664.007     189.490     792.408
  H      666.668     189.363     793.375
  H      665.936     189.566     795.704
  H      663.787     187.510     794.951
  H      662.487     188.438     796.726
  H      665.249     196.231     791.217
  H      665.725     195.768     792.852
  H      664.074     188.034     797.428
  P      667.600     187.785     796.552
  C      668.849     186.938     794.485
  O      668.785     187.946     795.477
  O      667.866     186.325     797.158
  O      667.470     188.902     797.547
  H      667.841     185.638     796.480
  H      669.653     187.202     793.794
  H      667.907     186.881     793.924
  H      669.071     185.971     794.940
  H      660.514     190.261     799.470
  H      661.230     190.271     797.876
  H      661.436     191.645     798.935

 3  4  5  6  7  8  9  10  11  12  22  25  29  30  31  32 0
 6-311+G(2d,p)
 ****
 33  36  37 0
 6-311+G(2d,p)
 ****
 1  2  13  14  15  16  17  18  19  20  21  23  24  26 0
 3-21G
 ****
 27  28  34  35  38  39  40  41  42  43  44  45  46  47  48 0
 3-21G
 ****


