%nproc=1
%NoSave
%Mem=1900MB
#P OB98/GEN NMR

erre ene a

0 1
  C       69.704    -380.278     100.737
  O       69.368    -380.312     102.112
  H       68.870    -380.692     100.165
  H       70.599    -380.878     100.554
  H       69.874    -379.247     100.423
  P       70.481    -379.776     103.139
  C       69.202    -377.544     103.329
  O       70.428    -378.175     102.975
  C       69.204    -376.081     102.870
  O       69.174    -376.054     101.423
  C       67.997    -375.286     103.377
  O       68.410    -373.955     103.703
  C       67.068    -375.246     102.170
  O       66.192    -374.124     102.203
  C       68.066    -375.241     101.011
  N       67.954    -374.831      95.926
  C       68.741    -374.259      96.859
  N       68.720    -374.439      98.205
  C       67.774    -375.345      98.538
  C       66.907    -376.010      97.697
  C       67.006    -375.712      96.326
  N       66.190    -376.274      95.367
  N       66.064    -376.833      98.428
  C       66.433    -376.670      99.682
  N       67.465    -375.771      99.802
  O       71.836    -380.386     103.001
  O       69.761    -380.005     104.549
  H       65.712    -374.139     103.058
  H       68.827    -379.721     104.523
  H       69.488    -373.566      96.488
  H       65.994    -377.174     100.536
  H       68.436    -374.233     100.780
  H       66.458    -376.157     102.150
  H       67.522    -375.746     104.242
  H       70.146    -375.615     103.182
  H       69.055    -377.589     104.416
  H       66.348    -376.017      94.403
  H       65.496    -376.949      95.653
  H       68.387    -378.094     102.846
  P       68.638    -373.593     105.238
  C       71.202    -373.587     104.918
  O       70.106    -374.083     105.685
  O       67.534    -373.960     106.175
  O       68.822    -371.995     105.191
  H       68.396    -371.603     105.984
  H       72.117    -373.980     105.308
  H       71.221    -372.519     104.972
  H       71.090    -373.890     103.898

 6  7  8  9  10  11  12  13  14  15  25  28  32  33  34  35 0
 6-311+G(2d,p)
 ****
 36  39  40 0
 6-311+G(2d,p)
 ****
 1  2  3  4  5  16  17  18  19  20  21  22  23  24 0
 3-21G
 ****
 26  27  29  30  31  37  38  41  42  43  44  45  46  47 0
 3-21G
 ****
 48 0
 3-21G
 ****


