%nproc=1
%NoSave
%Mem=1900MB
#P OB98/GEN NMR

erre ene a

0 1
  C      -37.762    -830.074       2.653
  O      -38.815    -829.134       2.757
  H      -37.418    -830.365       3.647
  H      -38.141    -830.968       2.141
  H      -36.939    -829.656       2.073
  P      -38.462    -827.753       3.505
  C      -39.662    -826.183       1.825
  O      -39.635    -826.709       3.138
  C      -40.898    -825.330       1.616
  O      -42.022    -826.212       1.325
  C      -41.282    -824.454       2.833
  O      -41.496    -823.092       2.434
  C      -42.607    -825.051       3.313
  O      -43.483    -824.065       3.845
  C      -43.153    -825.692       2.055
  N      -47.493    -826.777       4.514
  C      -46.987    -825.618       4.065
  N      -45.872    -825.393       3.334
  C      -45.285    -826.563       3.035
  C      -45.675    -827.838       3.398
  C      -46.835    -827.926       4.202
  N      -47.299    -829.123       4.702
  N      -44.794    -828.800       2.923
  C      -43.859    -828.113       2.313
  N      -44.094    -826.755       2.359
  O      -37.198    -827.208       2.672
  O      -38.146    -827.893       4.949
  H      -44.368    -824.472       3.942
  H      -36.436    -827.137       3.282
  H      -47.543    -824.720       4.340
  H      -42.969    -828.525       1.851
  H      -43.653    -824.961       1.407
  H      -42.407    -825.797       4.092
  H      -40.516    -824.493       3.622
  H      -40.758    -824.696       0.730
  H      -39.669    -827.014       1.101
  H      -48.075    -829.072       5.363
  H      -46.769    -829.960       4.577
  H      -38.749    -825.589       1.660
  P      -40.863    -821.968       3.387
  C      -40.181    -820.321       1.489
  O      -41.005    -820.564       2.637
  O      -39.294    -822.295       3.323
  O      -41.374    -822.003       4.805
  H      -38.938    -822.430       4.239
  H      -40.390    -819.346       1.100
  H      -40.388    -821.056       0.739
  H      -39.150    -820.380       1.771

 6  7  8  9  10  11  12  13  14  15  25  28  32  33  34  35 0
 6-311+G(2d,p)
 ****
 36  39  40 0
 6-311+G(2d,p)
 ****
 1  2  3  4  5  16  17  18  19  20  21  22  23  24 0
 3-21G
 ****
 26  27  29  30  31  37  38  41  42  43  44  45  46  47  48 0
 3-21G
 ****


