%nproc=1
%NoSave
%Mem=1900MB
#P OB98/GEN NMR

erre ene a

0 1
  C     -183.414    -916.243     -22.090
  O     -182.479    -915.245     -22.459
  H     -183.335    -917.080     -22.793
  H     -184.424    -915.840     -22.141
  H     -183.207    -916.611     -21.079
  P     -182.289    -914.027     -21.441
  C     -183.006    -912.300     -23.247
  O     -183.245    -912.842     -21.956
  C     -184.135    -911.356     -23.649
  O     -185.373    -912.103     -23.788
  C     -184.418    -910.249     -22.637
  O     -183.531    -909.153     -22.788
  C     -185.837    -909.878     -23.020
  O     -185.821    -909.057     -24.211
  C     -186.461    -911.250     -23.322
  N     -190.733    -911.594     -20.625
  C     -190.453    -910.824     -21.745
  N     -191.429    -910.024     -22.196
  N     -189.299    -910.836     -22.353
  C     -188.400    -911.668     -21.778
  C     -188.564    -912.488     -20.679
  C     -189.849    -912.483     -20.017
  O     -190.158    -913.155     -19.040
  N     -187.422    -913.201     -20.409
  C     -186.563    -912.804     -21.330
  N     -187.101    -911.866     -22.177
  O     -180.819    -913.479     -21.785
  O     -182.409    -914.373     -19.991
  H     -185.411    -909.588     -24.905
  H     -180.392    -913.178     -20.960
  H     -191.639    -911.543     -20.178
  H     -185.550    -913.169     -21.421
  H     -187.213    -911.196     -24.124
  H     -186.353    -909.294     -22.246
  H     -192.328    -909.937     -21.728
  H     -184.411    -910.640     -21.607
  H     -191.260    -909.474     -23.012
  H     -183.893    -910.929     -24.624
  H     -182.939    -913.114     -23.979
  H     -182.049    -911.765     -23.228
  P     -183.553    -908.009     -21.655
  C     -184.037    -906.135     -23.390
  O     -184.491    -906.850     -22.238
  O     -182.083    -907.377     -21.752
  O     -183.875    -908.492     -20.279
  H     -181.851    -906.958     -20.916
  H     -184.763    -905.398     -23.661
  H     -183.901    -906.818     -24.203
  H     -183.107    -905.655     -23.168

 6  7  8  9  10  11  12  13  14  15  26  29  33  34 0
 6-311+G(2d,p)
 ****
 36  38  39  40  41 0
 6-311+G(2d,p)
 ****
 1  2  3  4  5  16  17  18  19  20  21  22  23  24  25 0
 3-21G
 ****
 27  28  30  31  32  35  37  42  43  44  45  46  47 0
 3-21G
 ****
 48  49 0
 3-21G
 ****


