%nproc=1
%NoSave
%Mem=1900MB
#P OB98/GEN NMR

erre ene a

0 1
  C     -198.009      70.479    -180.603
  O     -196.932      69.590    -180.380
  H     -197.973      71.272    -179.848
  H     -198.958      69.946    -180.504
  H     -197.940      70.938    -181.593
  P     -196.587      68.492    -181.495
  C     -194.070      68.344    -180.942
  O     -195.320      67.666    -180.956
  C     -192.911      67.343    -181.002
  O     -192.704      66.796    -179.662
  C     -193.155      66.153    -181.954
  O     -191.882      65.765    -182.488
  C     -193.685      65.109    -180.985
  O     -193.682      63.825    -181.548
  C     -192.748      65.359    -179.797
  N     -193.190      64.722    -178.563
  C     -192.625      63.493    -178.238
  O     -191.765      62.930    -178.919
  N     -193.090      62.906    -177.091
  C     -194.049      63.415    -176.261
  O     -194.415      62.858    -175.235
  C     -194.631      64.705    -176.675
  C     -194.184      65.290    -177.788
  O     -196.460      69.004    -182.891
  O     -197.785      67.433    -181.365
  H     -198.460      67.619    -182.044
  H     -192.905      63.707    -182.137
  H     -192.690      62.015    -176.841
  H     -195.409      65.124    -176.049
  H     -194.588      66.239    -178.122
  H     -191.731      65.025    -180.028
  H     -194.720      65.336    -180.713
  H     -193.841      66.395    -182.772
  H     -191.992      67.880    -181.269
  H     -194.012      68.931    -180.018
  H     -194.022      69.025    -181.802
  P     -191.572      65.685    -184.063
  C     -189.149      66.518    -183.776
  O     -189.993      65.495    -184.288
  O     -192.152      66.821    -184.845
  O     -192.198      64.292    -184.552
  H     -192.558      64.399    -185.453
  H     -188.128      66.277    -183.988
  H     -189.285      66.596    -182.718
  H     -189.399      67.451    -184.237

 6  7  8  9  10  11  12  13  14  15  16  27  31  32  33  34  35 0
 6-311+G(2d,p)
 ****
 36  37 0
 6-311+G(2d,p)
 ****
 1  2  3  4  5  17  18  19  20  21  22  23  24  25 0
 3-21G
 ****
 26  28  29  30  38  39  40  41  42  43  44  45 0
 3-21G
 ****


