%nproc=1
%NoSave
%Mem=1900MB
#P OB98/GEN NMR

erre ene a

0 1
  C       87.065    -282.301     369.253
  O       86.525    -282.879     368.060
  P       85.137    -283.689     368.144
  C       86.155    -286.054     368.322
  O       85.375    -285.053     368.957
  C       85.757    -287.463     368.795
  O       86.471    -288.465     368.024
  C       86.065    -287.701     370.282
  O       84.951    -288.205     371.018
  C       87.298    -288.592     370.250
  O       87.466    -289.353     371.436
  C       87.114    -289.372     368.940
  N       88.398    -289.868     368.410
  C       88.817    -291.104     368.872
  O       88.211    -291.749     369.728
  N       90.001    -291.574     368.344
  C       90.817    -290.895     367.496
  O       91.893    -291.327     367.093
  C       90.353    -289.546     367.094
  C       89.178    -289.110     367.565
  O       84.399    -283.842     366.854
  O       84.278    -282.815     369.183
  H       88.393    -289.685     371.459
  H       83.353    -282.801     368.874
  H       90.305    -292.482     368.660
  H       90.987    -288.975     366.442
  H       88.819    -288.117     367.303
  H       86.468    -290.237     369.087
  H       88.184    -287.955     370.157
  H       86.314    -286.759     370.793
  H       84.685    -287.573     368.613
  H       87.215    -285.886     368.549
  H       86.061    -285.948     367.227
  P       84.306    -287.483     372.292
  C       86.045    -288.246     374.074
  O       85.487    -287.177     373.344
  O       83.111    -288.161     372.889
  O       83.909    -286.035     371.742
  H       83.047    -285.775     372.110
  H       86.534    -287.842     374.965
  H       86.795    -288.754     373.456
  H       85.281    -288.966     374.378
  H       87.983    -281.802     369.024
  H       87.248    -283.072     369.972
  H       86.367    -281.596     369.655

 3  4  5  6  7  8  9  10  11  12  13  23  28  29  30  31  32 0
 6-311+G(2d,p)
 ****
 33  34 0
 6-311+G(2d,p)
 ****
 1  2  14  15  16  17  18  19  20  21  22  24  25  26  27 0
 3-21G
 ****
 35  36  37  38  39  40  41  42  43  44  45 0
 3-21G
 ****


