%nproc=1
%NoSave
%Mem=1900MB
#P OB98/GEN NMR

erre ene a

0 1
  C      170.799     854.967     306.037
  O      171.903     855.499     305.308
  P      171.863     855.909     303.763
  C      171.091     858.031     302.446
  O      171.522     857.466     303.665
  C      171.073     859.573     302.454
  O      170.183     860.046     303.513
  C      172.466     860.126     302.782
  O      173.427     860.279     301.755
  C      172.189     861.404     303.561
  O      172.188     862.565     302.737
  C      170.805     861.183     304.163
  N      171.548     863.251     308.785
  C      171.703     863.814     307.539
  N      172.150     865.106     307.509
  N      171.450     863.204     306.417
  C      171.085     861.900     306.590
  C      170.915     861.221     307.772
  C      171.156     861.940     308.992
  O      171.022     861.478     310.143
  N      170.566     859.918     307.543
  C      170.539     859.794     306.235
  N      170.843     860.982     305.605
  O      171.074     854.995     302.881
  O      173.404     855.814     303.304
  H      172.298     863.342     303.301
  H      173.402     855.537     302.365
  H      171.741     863.791     309.623
  H      170.292     858.895     305.684
  H      170.152     862.035     303.966
  H      172.984     861.577     304.313
  H      172.488     865.588     308.326
  H      172.920     859.439     303.503
  H      172.471     865.429     306.600
  H      170.670     859.973     301.523
  H      170.094     857.655     302.236
  H      171.742     857.703     301.625
  P      174.836     859.501     301.666
  C      175.630     857.089     301.344
  O      174.554     858.005     301.206
  O      175.288     859.334     303.194
  O      175.903     860.222     300.883
  H      176.232     859.122     303.252
  H      175.418     856.207     300.704
  H      175.732     856.784     302.383
  H      176.577     857.546     301.000
  H      171.096     854.780     307.048
  H      170.480     854.051     305.584
  H      169.992     855.670     306.026

 3  4  5  6  7  8  9  10  11  12  23  26  30  31 0
 6-311+G(2d,p)
 ****
 33  35  36  37  38 0
 6-311+G(2d,p)
 ****
 1  2  13  14  15  16  17  18  19  20  21  22  24  25 0
 3-21G
 ****
 27  28  29  32  34  39  40  41  42  43  44  45  46  47  48  49 0
 3-21G
 ****


