%nproc=1
%NoSave
%Mem=1900MB
#P OB98/GEN NMR

erre ene a

0 1
  C     -196.328    -323.509    -226.445
  O     -196.202    -323.144    -225.079
  H     -197.052    -322.846    -226.919
  H     -196.680    -324.541    -226.526
  H     -195.364    -323.402    -226.950
  P     -195.201    -324.025    -224.188
  C     -197.103    -324.277    -222.443
  O     -195.760    -323.869    -222.687
  C     -197.672    -323.534    -221.229
  O     -197.089    -324.042    -220.009
  C     -197.408    -322.031    -221.242
  O     -198.389    -321.369    -222.028
  C     -197.582    -321.704    -219.765
  O     -198.984    -321.586    -219.447
  C     -196.988    -322.940    -219.068
  N     -193.880    -321.977    -215.100
  C     -195.210    -321.846    -215.238
  N     -195.969    -322.067    -216.336
  C     -195.203    -322.477    -217.369
  C     -193.826    -322.655    -217.369
  C     -193.153    -322.390    -216.165
  N     -191.781    -322.518    -216.023
  N     -193.382    -323.078    -218.611
  C     -194.490    -323.207    -219.323
  N     -195.610    -322.822    -218.635
  O     -193.744    -323.749    -224.383
  O     -195.666    -325.507    -224.583
  H     -199.380    -322.469    -219.595
  H     -196.639    -325.552    -224.644
  H     -195.752    -321.526    -214.356
  H     -194.527    -323.601    -220.341
  H     -197.573    -323.227    -218.177
  H     -197.114    -320.755    -219.488
  H     -196.389    -321.800    -221.543
  H     -198.747    -323.744    -221.185
  H     -197.139    -325.362    -222.268
  H     -191.367    -322.132    -215.195
  H     -191.235    -322.705    -216.862
  H     -197.686    -324.056    -223.344
  P     -197.969    -320.571    -223.360
  C     -198.656    -318.333    -222.306
  O     -198.890    -319.248    -223.359
  O     -198.001    -321.386    -224.609
  O     -196.521    -319.988    -223.029
  H     -196.071    -319.725    -223.863
  H     -199.319    -317.499    -222.404
  H     -197.643    -317.991    -222.349
  H     -198.829    -318.817    -221.368

 6  7  8  9  10  11  12  13  14  15  25  28  32  33  34  35 0
 6-311+G(2d,p)
 ****
 36  39  40 0
 6-311+G(2d,p)
 ****
 1  2  3  4  5  16  17  18  19  20  21  22  23  24 0
 3-21G
 ****
 26  27  29  30  31  37  38  41  42  43  44  45  46  47 0
 3-21G
 ****
 48 0
 3-21G
 ****


