%nproc=1
%NoSave
%Mem=1900MB
#P OB98/GEN NMR

erre ene a

0 1
  C        6.821     136.557    -276.413
  O        6.747     136.153    -277.766
  H        7.100     137.614    -276.379
  H        7.573     135.977    -275.872
  H        5.845     136.439    -275.932
  P        6.605     134.584    -278.078
  C        5.675     135.108    -280.430
  O        6.695     134.455    -279.678
  C        5.717     134.679    -281.898
  O        6.862     135.264    -282.554
  C        5.869     133.179    -282.096
  O        4.731     132.429    -281.720
  C        6.393     133.086    -283.521
  O        5.363     133.082    -284.504
  C        7.225     134.386    -283.640
  N        8.659     134.118    -283.666
  C        9.279     134.259    -284.902
  O        8.680     134.570    -285.932
  N       10.619     133.992    -284.932
  C       11.369     133.554    -283.879
  O       12.562     133.291    -283.978
  C       10.654     133.397    -282.603
  C        9.349     133.681    -282.553
  O        5.406     133.907    -277.484
  O        7.998     133.972    -277.588
  H        5.800     133.084    -285.378
  H        7.937     132.992    -277.478
  H       11.088     134.100    -285.816
  H       11.216     133.050    -281.747
  H        8.796     133.573    -281.624
  H        6.967     134.917    -284.566
  H        6.982     132.179    -283.673
  H        6.683     132.834    -281.447
  H        4.814     135.055    -282.394
  H        5.853     136.186    -280.367
  H        4.695     134.885    -279.995
  P        4.762     130.851    -281.476
  C        2.735     130.954    -279.856
  O        3.291     130.380    -281.034
  O        5.940     130.306    -280.734
  O        4.853     130.299    -282.992
  H        5.395     129.488    -282.977
  H        1.759     130.548    -279.688
  H        2.665     132.015    -279.975
  H        3.363     130.730    -279.019

 6  7  8  9  10  11  12  13  14  15  16  26  31  32  33  34  35 0
 6-311+G(2d,p)
 ****
 36  37 0
 6-311+G(2d,p)
 ****
 1  2  3  4  5  17  18  19  20  21  22  23  24  25 0
 3-21G
 ****
 27  28  29  30  38  39  40  41  42  43  44  45 0
 3-21G
 ****


