%nproc=1
%NoSave
%Mem=1900MB
#P OB98/GEN NMR

erre ene a

0 1
  C      181.869    -823.499     327.500
  O      181.935    -822.179     327.015
  P      183.348    -821.472     326.708
  C      183.571    -822.589     324.394
  O      183.408    -821.363     325.105
  C      183.211    -822.407     322.936
  O      181.815    -822.036     322.846
  C      183.965    -821.307     322.192
  O      185.248    -821.710     321.678
  C      183.023    -821.041     321.025
  O      183.190    -822.067     320.022
  C      181.648    -821.167     321.697
  N      178.147    -817.564     320.716
  C      178.407    -818.765     320.135
  N      179.362    -819.662     320.444
  C      180.098    -819.235     321.486
  C      179.933    -818.038     322.196
  C      178.923    -817.188     321.767
  N      178.644    -815.981     322.375
  N      180.880    -817.964     323.204
  C      181.563    -819.074     323.120
  N      181.121    -819.897     322.105
  O      184.515    -822.119     327.364
  O      183.133    -819.963     327.164
  H      182.834    -822.894     320.403
  H      183.998    -819.514     327.260
  H      177.762    -819.048     319.313
  H      182.390    -819.345     323.759
  H      180.910    -821.647     321.039
  H      183.220    -820.082     320.538
  H      184.058    -820.395     322.800
  H      183.337    -823.381     322.422
  H      182.910    -823.339     324.844
  H      177.797    -815.483     322.079
  H      179.094    -815.774     323.248
  H      184.603    -822.938     324.515
  P      186.267    -820.538     321.285
  C      187.174    -820.728     323.746
  O      187.459    -820.631     322.368
  O      185.652    -819.185     321.147
  O      186.946    -821.085     319.945
  H      187.508    -821.881     320.048
  H      188.094    -820.952     324.270
  H      186.465    -821.538     323.938
  H      186.772    -819.778     324.116
  H      180.845    -823.778     327.637
  H      182.384    -823.561     328.436
  H      182.328    -824.161     326.796

 3  4  5  6  7  8  9  10  11  12  22  25  29  30  31  32 0
 6-311+G(2d,p)
 ****
 33  36  37 0
 6-311+G(2d,p)
 ****
 1  2  13  14  15  16  17  18  19  20  21  23  24  26 0
 3-21G
 ****
 27  28  34  35  38  39  40  41  42  43  44  45  46  47  48 0
 3-21G
 ****


