%nproc=1
%NoSave
%Mem=1900MB
#P OB98/GEN NMR

erre ene a

0 1
  C       90.730    -100.075       9.025
  O       91.896    -100.768       8.575
  P       93.168    -100.755       9.554
  C       92.629    -103.073      10.580
  O       93.574    -102.272       9.886
  C       92.632    -104.522      10.079
  O       92.564    -104.571       8.630
  C       93.874    -105.311      10.501
  O       93.471    -106.667      10.707
  C       94.754    -105.247       9.268
  O       95.724    -106.292       9.271
  C       93.694    -105.335       8.158
  N       94.172    -104.850       6.866
  C       95.136    -105.623       6.214
  O       95.599    -106.627       6.760
  N       95.585    -105.222       4.982
  C       95.150    -104.114       4.468
  N       95.636    -103.769       3.245
  C       94.177    -103.235       5.146
  C       93.734    -103.664       6.326
  O       92.568    -100.210      10.934
  O       94.287     -99.891       9.067
  H       96.095    -106.366       8.365
  H       93.124     -99.485      11.276
  H       93.858    -102.311       4.688
  H       93.019    -103.092       6.897
  H       93.361    -106.372       8.024
  H       95.278    -104.285       9.224
  H       94.351    -104.923      11.406
  H       91.733    -105.018      10.466
  H       96.296    -104.401       2.808
  H       91.628    -102.656      10.454
  H       95.368    -102.930       2.754
  H       92.844    -103.028      11.652
  P       93.621    -107.289      12.176
  C       91.458    -106.324      13.165
  O       92.116    -107.483      12.694
  O       94.084    -106.006      13.022
  O       94.556    -108.434      12.372
  H       94.281    -106.271      13.939
  H       90.412    -106.573      13.367
  H       91.493    -105.532      12.412
  H       91.921    -105.981      14.094
  H       89.959    -100.158       8.288
  H       90.966     -99.043       9.180
  H       90.392    -100.505       9.945

 3  4  5  6  7  8  9  10  11  12  13  21  23  27  28  29  30  32 0
 6-311+G(2d,p)
 ****
 34  35 0
 6-311+G(2d,p)
 ****
 1  2  14  15  16  17  18  19  20  22  24  25  26 0
 3-21G
 ****
 31  33  36  37  38  39  40  41  42  43  44  45  46 0
 3-21G
 ****


