%nproc=1
%NoSave
%Mem=1900MB
#P OB98/GEN NMR

erre ene a

0 1
  C      -83.825     -91.697     -19.896
  O      -83.468     -90.553     -19.113
  P      -84.064     -90.454     -17.628
  C      -82.158     -89.093     -16.511
  O      -83.511     -89.115     -16.939
  C      -81.221     -88.635     -17.639
  O      -81.561     -87.291     -18.079
  C      -79.745     -88.607     -17.233
  O      -78.954     -88.875     -18.397
  C      -79.540     -87.160     -16.830
  O      -78.158     -86.802     -16.827
  C      -80.400     -86.459     -17.880
  N      -79.462     -81.545     -18.521
  C      -78.841     -82.650     -19.071
  N      -77.845     -82.406     -19.948
  N      -79.169     -83.883     -18.787
  C      -80.207     -83.971     -17.920
  C      -80.898     -82.955     -17.302
  C      -80.508     -81.596     -17.607
  O      -81.012     -80.581     -17.139
  N      -81.870     -83.447     -16.468
  C      -81.761     -84.756     -16.579
  N      -80.792     -85.123     -17.474
  O      -83.286     -91.620     -16.852
  O      -85.542     -90.650     -17.556
  H      -77.868     -86.750     -17.763
  H      -83.896     -92.357     -16.669
  H      -79.162     -80.618     -18.767
  H      -82.352     -85.480     -16.037
  H      -79.882     -86.359     -18.843
  H      -79.939     -86.993     -15.822
  H      -77.578     -81.481     -20.250
  H      -79.472     -89.310     -16.441
  H      -77.401     -83.197     -20.398
  H      -81.356     -89.303     -18.497
  H      -81.855     -90.086     -16.170
  H      -82.074     -88.442     -15.635
  P      -78.220     -90.297     -18.464
  C      -78.186     -90.680     -21.031
  O      -77.454     -90.339     -19.869
  O      -79.423     -91.333     -18.662
  O      -77.388     -90.627     -17.269
  H      -79.170     -92.214     -18.332
  H      -78.388     -89.772     -21.605
  H      -79.131     -91.176     -20.791
  H      -77.581     -91.357     -21.640
  H      -83.359     -91.631     -20.857
  H      -84.888     -91.729     -20.016
  H      -83.495     -92.586     -19.400

 3  4  5  6  7  8  9  10  11  12  23  26  30  31 0
 6-311+G(2d,p)
 ****
 33  35  36  37  38 0
 6-311+G(2d,p)
 ****
 1  2  13  14  15  16  17  18  19  20  21  22  24  25 0
 3-21G
 ****
 27  28  29  32  34  39  40  41  42  43  44  45  46  47  48  49 0
 3-21G
 ****


