%nproc=1
%NoSave
%Mem=1900MB
#P OB98/GEN NMR

erre ene a

0 1
  C     -647.047      89.812     128.123
  O     -647.054      91.085     127.501
  H     -646.866      89.052     127.358
  H     -648.010      89.612     128.595
  H     -646.248      89.755     128.870
  P     -647.304      92.377     128.422
  C     -647.637      93.819     126.305
  O     -648.189      93.379     127.540
  C     -648.724      93.911     125.242
  O     -649.198      92.597     124.894
  C     -649.953      94.717     125.683
  O     -649.704      96.104     125.540
  C     -650.987      94.185     124.703
  O     -650.792      94.791     123.412
  C     -650.633      92.687     124.658
  N     -650.659      88.225     127.057
  C     -649.823      88.689     126.051
  N     -648.894      87.820     125.599
  N     -649.918      89.883     125.533
  C     -650.933      90.615     126.039
  C     -651.835      90.254     127.019
  C     -651.697      88.948     127.623
  O     -652.400      88.502     128.530
  N     -652.776      91.240     127.225
  C     -652.417      92.199     126.394
  N     -651.317      91.867     125.643
  O     -646.084      93.011     129.019
  O     -648.328      91.864     129.543
  H     -650.942      95.749     123.529
  H     -647.854      91.548     130.334
  H     -650.549      87.281     127.401
  H     -652.917      93.158     126.304
  H     -650.831      92.250     123.674
  H     -652.015      94.399     125.010
  H     -648.975      86.826     125.757
  H     -650.264      94.452     126.701
  H     -648.312      88.120     124.830
  H     -648.281      94.345     124.340
  H     -646.868      93.093     126.009
  H     -647.161      94.802     126.428
  P     -650.087      97.131     126.713
  C     -648.995      99.097     125.434
  O     -650.185      98.567     125.999
  O     -649.192      97.086     127.909
  O     -651.621      96.811     127.049
  H     -651.734      96.107     127.735
  H     -649.203     100.050     124.995
  H     -648.630      98.430     124.682
  H     -648.256      99.210     126.200

 6  7  8  9  10  11  12  13  14  15  26  29  33  34 0
 6-311+G(2d,p)
 ****
 36  38  39  40  41 0
 6-311+G(2d,p)
 ****
 1  2  3  4  5  16  17  18  19  20  21  22  23  24  25 0
 3-21G
 ****
 27  28  30  31  32  35  37  42  43  44  45  46  47 0
 3-21G
 ****
 48  49 0
 3-21G
 ****


