%nproc=1
%NoSave
%Mem=1900MB
#P OB98/GEN NMR

erre ene a

0 1
  C      280.152    -310.543    -501.977
  O      280.108    -311.936    -501.674
  P      279.464    -312.925    -502.762
  C      281.608    -314.393    -502.882
  O      280.643    -313.617    -503.582
  C      282.670    -314.933    -503.854
  O      283.538    -313.882    -504.334
  C      283.579    -315.978    -503.227
  O      282.997    -317.270    -503.250
  C      284.777    -315.934    -504.186
  O      284.469    -316.696    -505.372
  C      284.864    -314.444    -504.532
  N      289.786    -313.600    -503.691
  C      289.169    -314.386    -504.651
  N      289.981    -315.042    -505.514
  N      287.868    -314.512    -504.754
  C      287.187    -313.795    -503.823
  C      287.683    -312.999    -502.818
  C      289.119    -312.871    -502.712
  O      289.732    -312.207    -501.896
  N      286.681    -312.434    -502.075
  C      285.558    -312.890    -502.627
  N      285.818    -313.724    -503.688
  O      278.823    -311.913    -503.824
  O      278.427    -313.872    -502.205
  H      283.944    -317.462    -505.072
  H      278.060    -312.326    -504.263
  H      290.790    -313.543    -503.655
  H      284.574    -312.626    -502.304
  H      285.147    -314.263    -505.583
  H      285.675    -316.375    -503.750
  H      290.972    -314.934    -505.515
  H      283.900    -315.690    -502.228
  H      289.540    -315.592    -506.255
  H      282.139    -315.387    -504.713
  H      281.107    -315.230    -502.380
  H      282.058    -313.777    -502.088
  P      282.179    -317.750    -501.940
  C      279.943    -317.651    -503.290
  O      280.677    -317.217    -502.141
  O      282.769    -316.808    -500.793
  O      282.323    -319.185    -501.603
  H      282.766    -317.260    -499.931
  H      278.898    -317.332    -503.166
  H      279.968    -318.746    -503.357
  H      280.362    -317.204    -504.184
  H      280.605    -310.015    -501.164
  H      279.157    -310.179    -502.128
  H      280.727    -310.389    -502.866

 3  4  5  6  7  8  9  10  11  12  23  26  30  31 0
 6-311+G(2d,p)
 ****
 33  35  36  37  38 0
 6-311+G(2d,p)
 ****
 1  2  13  14  15  16  17  18  19  20  21  22  24  25 0
 3-21G
 ****
 27  28  29  32  34  39  40  41  42  43  44  45  46  47  48  49 0
 3-21G
 ****


