%nproc=1
%NoSave
%Mem=1900MB
#P OB98/GEN NMR

erre ene a

0 1
  C     -279.772    -579.721     350.002
  O     -280.203    -579.588     348.641
  P     -279.416    -578.545     347.710
  C     -281.302    -576.751     347.756
  O     -280.490    -577.609     346.963
  C     -282.618    -576.413     347.046
  O     -282.387    -575.462     345.968
  C     -283.307    -577.631     346.414
  O     -284.726    -577.407     346.423
  C     -282.822    -577.581     344.978
  O     -283.656    -578.349     344.112
  C     -282.830    -576.072     344.733
  N     -282.697    -573.719     340.279
  C     -283.763    -573.968     341.118
  N     -284.968    -573.489     340.732
  N     -283.664    -574.630     342.245
  C     -282.385    -575.014     342.521
  C     -281.255    -574.831     341.766
  C     -281.387    -574.121     340.502
  O     -280.481    -573.880     339.713
  N     -280.154    -575.394     342.360
  C     -280.628    -575.913     343.480
  N     -281.971    -575.683     343.635
  O     -278.844    -579.474     346.533
  O     -278.307    -577.819     348.413
  H     -284.588    -578.115     344.309
  H     -277.887    -579.574     346.633
  H     -282.842    -573.209     339.414
  H     -280.040    -576.474     344.202
  H     -283.839    -575.689     344.503
  H     -281.800    -577.985     344.915
  H     -285.108    -572.927     339.906
  H     -283.094    -578.585     346.904
  H     -285.756    -573.620     341.351
  H     -283.293    -575.944     347.766
  H     -280.765    -575.830     347.986
  H     -281.485    -577.242     348.719
  P     -285.582    -578.219     347.513
  C     -287.278    -579.003     345.700
  O     -287.073    -578.320     346.923
  O     -285.731    -577.186     348.725
  O     -284.971    -579.509     347.945
  H     -285.877    -577.666     349.564
  H     -287.706    -579.984     345.914
  H     -286.341    -579.138     345.142
  H     -287.983    -578.433     345.092
  H     -280.382    -580.445     350.500
  H     -279.862    -578.777     350.498
  H     -278.751    -580.040     350.023

 3  4  5  6  7  8  9  10  11  12  23  26  30  31 0
 6-311+G(2d,p)
 ****
 33  35  36  37  38 0
 6-311+G(2d,p)
 ****
 1  2  13  14  15  16  17  18  19  20  21  22  24  25 0
 3-21G
 ****
 27  28  29  32  34  39  40  41  42  43  44  45  46  47  48  49 0
 3-21G
 ****


