%nproc=1
%NoSave
%Mem=1900MB
#P OB98/GEN NMR

erre ene a

0 1
  C      -42.060     375.496    -195.719
  O      -41.341     374.349    -196.127
  H      -42.390     375.353    -194.686
  H      -42.939     375.653    -196.350
  H      -41.413     376.376    -195.759
  P      -40.972     374.202    -197.684
  C      -38.433     374.681    -197.741
  O      -39.450     373.682    -197.715
  C      -37.056     374.054    -197.988
  O      -36.622     373.334    -196.814
  C      -37.043     373.030    -199.114
  O      -37.225     373.586    -200.400
  C      -35.785     372.229    -198.811
  O      -34.600     372.803    -199.356
  C      -35.733     372.289    -197.261
  N      -36.054     371.004    -196.650
  C      -34.967     370.176    -196.380
  O      -33.800     370.471    -196.642
  N      -35.267     368.965    -195.822
  C      -36.524     368.491    -195.567
  O      -36.731     367.373    -195.102
  C      -37.631     369.399    -195.901
  C      -37.352     370.599    -196.423
  O      -41.210     375.421    -198.526
  O      -41.804     372.922    -198.155
  H      -34.552     372.529    -200.291
  H      -41.873     372.884    -199.139
  H      -34.496     368.354    -195.605
  H      -38.642     369.058    -195.716
  H      -38.151     371.288    -196.677
  H      -34.724     372.575    -196.931
  H      -35.856     371.211    -199.201
  H      -37.889     372.347    -198.958
  H      -36.339     374.861    -198.177
  H      -38.428     375.176    -196.765
  H      -38.660     375.422    -198.515
  P      -37.953     372.813    -201.594
  C      -39.218     374.815    -202.660
  O      -38.182     373.850    -202.799
  O      -39.072     371.894    -201.217
  O      -36.751     371.897    -202.160
  H      -37.140     371.055    -202.466
  H      -39.251     375.431    -203.534
  H      -39.025     375.424    -201.801
  H      -40.157     374.316    -202.540

 6  7  8  9  10  11  12  13  14  15  16  26  31  32  33  34  35 0
 6-311+G(2d,p)
 ****
 36  37 0
 6-311+G(2d,p)
 ****
 1  2  3  4  5  17  18  19  20  21  22  23  24  25 0
 3-21G
 ****
 27  28  29  30  38  39  40  41  42  43  44  45 0
 3-21G
 ****


