%nproc=1
%NoSave
%Mem=1900MB
#P OB98/GEN NMR

erre ene a

0 1
  C      256.585    -290.466     427.517
  O      256.305    -289.781     426.309
  P      256.280    -290.642     424.954
  C      258.815    -290.276     424.444
  O      257.466    -290.098     424.028
  C      259.749    -289.510     423.506
  O      259.499    -289.871     422.132
  C      259.568    -287.998     423.569
  O      260.206    -287.441     424.706
  C      260.191    -287.559     422.253
  O      261.618    -287.447     422.367
  C      259.805    -288.721     421.315
  N      258.702    -288.386     420.421
  C      259.051    -287.727     419.246
  O      260.216    -287.424     418.970
  N      258.018    -287.401     418.412
  C      256.695    -287.609     418.657
  O      255.804    -287.239     417.895
  C      256.377    -288.281     419.932
  C      257.378    -288.626     420.742
  O      254.956    -290.147     424.211
  O      256.286    -292.121     425.159
  H      261.790    -286.710     422.987
  H      254.543    -290.893     423.734
  H      258.255    -286.946     417.543
  H      255.336    -288.457     420.160
  H      257.169    -289.110     421.693
  H      260.666    -289.014     420.703
  H      259.816    -286.582     421.927
  H      258.500    -287.745     423.563
  H      260.786    -289.782     423.750
  H      259.059    -291.339     424.421
  H      258.921    -289.921     425.472
  P      259.282    -287.124     425.981
  C      259.422    -284.563     425.499
  O      259.659    -285.621     426.398
  O      259.978    -288.054     427.093
  O      257.840    -287.409     425.743
  H      260.940    -288.139     426.953
  H      258.514    -284.724     424.912
  H      260.277    -284.463     424.828
  H      259.310    -283.636     426.067
  H      256.569    -289.773     428.332
  H      257.552    -290.920     427.454
  H      255.846    -291.223     427.678

 3  4  5  6  7  8  9  10  11  12  13  23  28  29  30  31  32 0
 6-311+G(2d,p)
 ****
 33  34 0
 6-311+G(2d,p)
 ****
 1  2  14  15  16  17  18  19  20  21  22  24  25  26 0
 3-21G
 ****
 27  35  36  37  38  39  40  41  42  43  44  45 0
 3-21G
 ****


