%nproc=1
%NoSave
%Mem=1900MB
#P OB98/GEN NMR

erre ene a

0 1
  C        9.924     256.300     152.759
  O       10.560     256.622     153.979
  H        9.552     255.274     152.819
  H       10.631     256.368     151.927
  H        9.075     256.968     152.583
  P       11.231     258.068     154.131
  C       13.517     259.076     153.473
  O       12.575     258.033     153.255
  C       14.602     259.043     152.400
  O       14.086     259.546     151.151
  C       15.833     259.884     152.727
  O       16.705     259.179     153.596
  C       16.420     260.070     151.338
  O       17.090     258.860     150.929
  C       15.154     260.278     150.486
  N       16.393     264.851     148.662
  C       17.145     263.695     148.738
  N       18.416     263.776     148.293
  N       16.694     262.565     149.221
  C       15.430     262.650     149.691
  C       14.591     263.740     149.687
  C       15.078     264.968     149.092
  O       14.436     266.007     148.981
  N       13.414     263.472     150.338
  C       13.520     262.205     150.688
  N       14.730     261.660     150.326
  O       11.434     258.556     155.533
  O       10.273     259.038     153.291
  H       17.235     258.924     149.968
  H        9.586     259.432     153.859
  H       16.796     265.694     148.288
  H       12.753     261.633     151.197
  H       15.262     259.862     149.480
  H       17.154     260.876     151.290
  H       18.864     264.649     148.053
  H       15.558     260.866     153.129
  H       19.002     262.954     148.396
  H       14.878     257.993     152.232
  H       13.956     258.919     154.464
  H       13.018     260.050     153.463
  P       18.139     259.775     154.012
  C       20.492     259.629     152.951
  O       19.098     259.491     152.756
  O       18.664     259.287     155.317
  O       17.947     261.357     153.935
  H       17.572     261.742     154.765
  H       21.003     259.411     152.037
  H       20.815     258.949     153.711
  H       20.712     260.632     153.253

 6  7  8  9  10  11  12  13  14  15  26  29  33  34 0
 6-311+G(2d,p)
 ****
 36  38  39  40  41 0
 6-311+G(2d,p)
 ****
 1  2  3  4  5  16  17  18  19  20  21  22  23  24  25 0
 3-21G
 ****
 27  28  30  31  32  35  37  42  43  44  45  46  47 0
 3-21G
 ****
 48  49 0
 3-21G
 ****


