%nproc=1
%NoSave
%Mem=1900MB
#P OB98/GEN NMR

erre ene a

0 1
  C     -394.395    -672.616       5.040
  O     -393.945    -673.759       4.328
  H     -393.525    -672.080       5.435
  H     -395.022    -672.933       5.886
  H     -394.954    -671.953       4.377
  P     -395.075    -674.678       3.660
  C     -394.252    -674.330       1.202
  O     -394.454    -675.225       2.291
  C     -393.060    -674.757       0.358
  O     -391.837    -674.263       0.987
  C     -392.903    -676.286       0.220
  O     -392.262    -676.541      -1.040
  C     -391.935    -676.592       1.367
  O     -391.396    -677.888       1.232
  C     -390.980    -675.406       1.219
  N     -386.625    -676.696       3.564
  C     -387.145    -677.047       2.364
  N     -388.297    -676.655       1.806
  C     -388.948    -675.783       2.598
  C     -388.545    -675.326       3.848
  C     -387.319    -675.818       4.340
  N     -386.800    -675.470       5.561
  N     -389.483    -674.436       4.375
  C     -390.423    -674.370       3.461
  N     -390.150    -675.178       2.383
  O     -396.177    -673.612       3.185
  O     -395.661    -675.729       4.551
  H     -392.109    -678.551       1.117
  H     -396.865    -673.526       3.854
  H     -386.541    -677.752       1.790
  H     -391.319    -673.765       3.527
  H     -390.321    -675.526       0.345
  H     -392.461    -676.566       2.329
  H     -393.852    -676.824       0.272
  H     -393.116    -674.277      -0.626
  H     -394.090    -673.322       1.610
  H     -395.161    -674.311       0.581
  H     -385.917    -675.880       5.846
  H     -387.315    -674.824       6.153
  P     -392.448    -677.997      -1.714
  C     -393.547    -677.337      -3.999
  O     -392.389    -677.838      -3.309
  O     -393.994    -678.296      -1.452
  O     -391.595    -679.102      -1.139
  H     -394.151    -679.276      -1.397
  H     -393.345    -677.292      -5.049
  H     -393.781    -676.357      -3.638
  H     -394.377    -677.989      -3.823

 6  7  8  9  10  11  12  13  14  15  25  28  32  33  34  35 0
 6-311+G(2d,p)
 ****
 36  37  40 0
 6-311+G(2d,p)
 ****
 1  2  3  4  5  16  17  18  19  20  21  22  23  24 0
 3-21G
 ****
 26  27  29  30  31  38  39 41  42  43  44  45  46  47  48 0
 3-21G
 ****


