%nproc=1
%NoSave
%Mem=1900MB
#P OB98/GEN NMR

erre ene a

0 1
  C        8.965     -40.088     254.275
  O        7.705     -40.263     254.885
  H        9.423     -39.177     254.670
  H        8.848     -39.981     253.194
  H        9.618     -40.936     254.497
  P        6.863     -41.566     254.466
  C        5.188     -42.288     256.322
  O        5.457     -41.414     255.234
  C        5.877     -41.785     257.594
  O        5.316     -40.502     257.962
  C        5.709     -42.727     258.787
  O        6.953     -42.837     259.481
  C        4.668     -42.046     259.655
  O        4.789     -42.407     261.030
  C        4.910     -40.565     259.341
  N        3.715     -39.757     259.581
  C        3.470     -39.371     260.902
  O        4.235     -39.722     261.802
  N        2.341     -38.645     261.181
  C        1.496     -38.379     260.235
  N        0.385     -37.676     260.580
  C        1.689     -38.807     258.836
  C        2.811     -39.480     258.581
  O        7.601     -42.741     255.259
  O        6.746     -41.803     252.997
  H        4.159     -41.856     261.545
  H        7.322     -43.629     254.930
  H        0.949     -38.576     258.085
  H        3.035     -39.837     257.582
  H        5.730     -40.167     259.954
  H        3.666     -42.340     259.320
  H        5.379     -43.724     258.498
  H        6.935     -41.611     257.370
  H        0.280     -37.408     261.551
  H        5.559     -43.287     256.076
  H       -0.353     -37.439     259.932
  H        4.107     -42.336     256.487
  P        8.101     -43.679     258.736
  C       10.187     -42.384     259.570
  O        9.430     -43.583     259.633
  O        8.439     -42.791     257.449
  O        7.685     -45.067     258.377
  H        7.987     -43.145     256.662
  H       11.037     -42.465     260.215
  H        9.579     -41.561     259.883
  H       10.516     -42.222     258.565

 6  7  8  9  10  11  12  13  14  15  16  26  30  31  32  33  35 0
 6-311+G(2d,p)
 ****
 37  38 0
 6-311+G(2d,p)
 ****
 1  2  3  4  5  17  18  19  20  21  22  23  24  25 0
 3-21G
 ****
 27  28  29  34  36  39  40  41  42  43  44  45  46 0
 3-21G
 ****


