%nproc=1
%NoSave
%Mem=1900MB
#P OB98/GEN NMR

erre ene a

0 1
  C      174.547     141.042     108.241
  O      174.984     139.886     107.558
  H      174.109     141.732     107.517
  H      175.398     141.534     108.720
  H      173.790     140.797     108.991
  P      175.401     138.594     108.409
  C      177.133     138.242     110.285
  O      176.817     138.933     109.085
  C      178.612     138.424     110.643
  O      179.425     137.727     109.656
  C      179.073     139.890     110.665
  O      180.118     139.996     111.642
  C      179.641     140.056     109.270
  O      180.476     141.187     109.181
  C      180.317     138.697     109.071
  N      180.600     138.411     107.665
  C      181.936     138.399     107.291
  O      182.857     138.646     108.069
  N      182.188     138.140     105.972
  C      181.247     137.956     105.002
  O      181.530     137.758     103.827
  C      179.845     138.022     105.448
  C      179.588     138.238     106.742
  O      175.353     137.295     107.677
  O      174.405     138.610     109.664
  H      180.965     141.182     108.330
  H      174.232     137.697     109.965
  H      183.154     138.118     105.685
  H      179.075     137.890     104.700
  H      178.567     138.294     107.101
  H      181.266     138.653     109.623
  H      178.833     140.188     108.540
  H      178.267     140.592     110.889
  H      178.801     137.938     111.608
  H      176.918     137.180     110.132
  H      176.506     138.618     111.101
  P      180.088     141.101     112.807
  C      180.766     143.563     113.139
  O      180.799     142.436     112.268
  O      180.610     140.620     114.122
  O      178.548     141.522     112.928
  H      178.361     141.822     113.838
  H      181.267     144.387     112.675
  H      181.257     143.318     114.058
  H      179.749     143.830     113.338

 6  7  8  9  10  11  12  13  14  15  16  26  31  32  33  34  35 0
 6-311+G(2d,p)
 ****
 36  37 0
 6-311+G(2d,p)
 ****
 1  2  3  4  5  17  18  19  20  21  22  23  24  25 0
 3-21G
 ****
 27  28  29  30  38  39  40  41  42  43  44  45 0
 3-21G
 ****


