%nproc=1
%NoSave
%Mem=1900MB
#P OB98/GEN NMR

erre ene a

0 1
  C     -886.088    1568.118     626.968
  O     -884.842    1568.703     626.638
  H     -886.081    1567.073     626.660
  H     -886.895    1568.627     626.460
  H     -886.259    1568.161     628.057
  P     -884.702    1570.287     626.922
  C     -883.733    1570.275     624.506
  O     -883.627    1570.769     625.822
  C     -883.081    1571.264     623.514
  O     -883.767    1572.535     623.544
  C     -881.634    1571.595     623.851
  O     -880.723    1570.577     623.435
  C     -881.450    1572.862     623.012
  O     -881.360    1572.501     621.599
  C     -882.793    1573.569     623.314
  N     -882.709    1574.483     624.482
  C     -881.872    1575.614     624.318
  O     -881.256    1575.816     623.263
  N     -881.735    1576.478     625.370
  C     -882.382    1576.232     626.475
  N     -882.196    1577.129     627.484
  C     -883.273    1575.085     626.688
  C     -883.391    1574.262     625.643
  O     -883.876    1570.348     628.287
  O     -885.987    1571.059     626.933
  H     -880.447    1572.242     621.448
  H     -883.612    1571.285     628.482
  H     -883.762    1574.919     627.616
  H     -884.007    1573.379     625.717
  H     -883.118    1574.145     622.427
  H     -880.559    1573.439     623.263
  H     -881.492    1571.857     624.885
  H     -883.194    1570.854     622.511
  H     -881.543    1577.883     627.346
  H     -884.785    1570.149     624.250
  H     -882.535    1576.979     628.449
  H     -883.230    1569.308     624.426
  P     -879.864    1569.859     624.593
  C     -877.543    1570.611     623.688
  O     -878.412    1569.539     623.968
  O     -880.556    1568.405     624.686
  O     -879.828    1570.560     625.921
  H     -880.531    1568.080     625.613
  H     -876.629    1570.232     623.281
  H     -877.337    1571.148     624.590
  H     -878.003    1571.268     622.980

 6  7  8  9  10  11  12  13  14  15  16  26  30  31  32  33  35 0
 6-311+G(2d,p)
 ****
 37  38 0
 6-311+G(2d,p)
 ****
 1  2  3  4  5  17  18  19  20  21  22  23  24  25 0
 3-21G
 ****
 27  28  29  34  36  39  40  41  42  43  44  45  46 0
 3-21G
 ****


