%nproc=1
%NoSave
%Mem=1900MB
#P OB98/GEN NMR

erre ene a

0 1
  C      205.598    -713.507      54.163
  O      206.854    -713.251      54.759
  P      207.266    -713.812      56.196
  C      205.664    -712.444      57.718
  O      206.999    -712.652      57.285
  C      205.568    -711.751      59.088
  O      206.265    -712.546      60.072
  C      206.295    -710.399      59.038
  O      205.629    -709.257      58.542
  C      206.915    -710.234      60.421
  O      206.118    -709.408      61.279
  C      206.976    -711.660      60.954
  N      211.005    -711.914      64.026
  C      209.707    -711.553      64.315
  N      209.510    -711.009      65.548
  N      208.703    -711.691      63.490
  C      209.078    -712.149      62.270
  C      210.329    -712.556      61.865
  C      211.419    -712.438      62.804
  O      212.599    -712.668      62.548
  N      210.347    -712.895      60.531
  C      209.114    -712.665      60.128
  N      208.318    -712.175      61.136
  O      208.547    -714.586      56.272
  O      206.065    -714.843      56.497
  H      205.810    -708.645      60.759
  H      206.438    -715.591      57.002
  H      211.749    -711.715      64.680
  H      208.758    -712.802      59.108
  H      206.477    -711.731      61.927
  H      207.893    -709.745      60.346
  H      210.272    -710.762      66.157
  H      207.146    -710.520      58.359
  H      208.608    -710.582      65.734
  H      204.537    -711.688      59.432
  H      205.172    -713.423      57.746
  H      205.126    -711.842      56.975
  P      205.915    -708.510      57.153
  C      207.725    -707.019      58.174
  O      206.498    -707.053      57.475
  O      204.457    -708.193      56.566
  O      206.708    -709.299      56.170
  H      204.518    -708.065      55.600
  H      207.873    -706.026      58.599
  H      208.546    -707.233      57.482
  H      207.733    -707.755      58.984
  H      205.553    -713.030      53.206
  H      204.821    -713.122      54.790
  H      205.469    -714.562      54.042

 3  4  5  6  7  8  9  10  11  12  23  26  30  31 0
 6-311+G(2d,p)
 ****
 33  35  36  37  38 0
 6-311+G(2d,p)
 ****
 1  2  13  14  15  16  17  18  19  20  21  22  24  25 0
 3-21G
 ****
 27  28  29  32  34  39  40  41  42  43  44  45  46  47  48  49 0
 3-21G
 ****


