%nproc=1
%NoSave
%Mem=1900MB
#P OB98/GEN NMR

erre ene a

0 1
  C      200.538      40.933    -197.198
  O      200.859      40.852    -198.580
  P      200.784      39.406    -199.276
  C      201.807      40.346    -201.471
  O      201.925      39.411    -200.404
  C      203.180      40.678    -202.046
  O      203.941      41.455    -201.100
  C      204.040      39.467    -202.369
  O      203.712      38.892    -203.623
  C      205.421      40.099    -202.422
  O      205.607      40.763    -203.685
  C      205.344      41.129    -201.289
  N      209.552      39.320    -199.019
  C      209.293      39.646    -200.302
  N      208.141      40.111    -200.831
  C      207.185      40.194    -199.890
  C      207.293      39.860    -198.550
  C      208.550      39.414    -198.112
  N      208.822      39.111    -196.796
  N      206.099      40.078    -197.899
  C      205.287      40.542    -198.824
  N      205.899      40.640    -200.042
  O      199.428      39.484    -200.123
  O      200.794      38.251    -198.336
  H      205.183      40.205    -204.363
  H      199.085      38.585    -200.289
  H      210.120      39.526    -200.995
  H      204.257      40.826    -198.657
  H      205.862      42.062    -201.538
  H      206.228      39.368    -202.323
  H      204.006      38.727    -201.559
  H      203.029      41.293    -202.944
  H      201.347      41.263    -201.092
  H      209.785      38.978    -196.533
  H      208.137      39.373    -196.097
  H      201.159      39.923    -202.246
  P      203.654      37.290    -203.694
  C      203.038      37.203    -206.216
  O      203.995      36.920    -205.214
  O      202.091      36.978    -203.559
  O      204.463      36.603    -202.646
  H      201.952      36.084    -203.193
  H      203.534      37.185    -207.190
  H      202.593      38.191    -206.069
  H      202.254      36.441    -206.205
  H      200.629      41.947    -196.869
  H      201.209      40.315    -196.639
  H      199.534      40.598    -197.045

 3  4  5  6  7  8  9  10  11  12  22  25  29  30  31  32 0
 6-311+G(2d,p)
 ****
 33  36  37 0
 6-311+G(2d,p)
 ****
 1  2  13  14  15  16  17  18  19  20  21  23  24  26 0
 3-21G
 ****
 27  28  34  35  38  39  40  41  42  43  44  45  46  47  48 0
 3-21G
 ****


