%nproc=1
%NoSave
%Mem=1900MB
#P OB98/GEN NMR

erre ene a

0 1
  C       27.954     -66.240     243.757
  O       29.027     -65.538     243.158
  H       28.181     -66.394     244.816
  H       27.836     -67.216     243.277
  H       27.026     -65.669     243.673
  P       28.786     -65.011     241.665
  C       28.489     -67.406     240.640
  O       29.226     -66.192     240.664
  C       27.831     -67.593     239.276
  O       27.028     -68.790     239.254
  C       26.851     -66.496     238.901
  O       27.492     -65.285     238.563
  C       26.132     -67.148     237.728
  O       26.852     -66.975     236.503
  C       26.109     -68.639     238.145
  N       24.769     -69.087     238.472
  C       24.105     -69.783     237.453
  O       24.669     -69.993     236.379
  N       22.812     -70.185     237.667
  C       22.224     -69.895     238.785
  N       20.931     -70.295     238.920
  C       22.887     -69.163     239.883
  C       24.148     -68.792     239.662
  O       29.951     -63.931     241.488
  O       27.417     -64.482     241.402
  H       26.267     -67.309     235.791
  H       30.828     -64.253     241.755
  H       22.357     -68.958     240.802
  H       24.710     -68.249     240.414
  H       26.494     -69.271     237.334
  H       25.137     -66.720     237.576
  H       26.122     -66.348     239.709
  H       28.626     -67.693     238.525
  H       20.498     -70.745     238.123
  H       27.732     -67.413     241.431
  H       20.350     -70.058     239.711
  H       29.188     -68.224     240.843
  P       27.142     -63.919     239.320
  C       25.216     -63.574     237.644
  O       26.357     -62.993     238.264
  O       28.293     -63.246     239.990
  O       25.968     -64.349     240.321
  H       25.176     -64.714     239.890
  H       24.780     -62.869     236.967
  H       24.499     -63.839     238.393
  H       25.510     -64.451     237.106
  H       28.733     -62.655     239.360

 6  7  8  9  10  11  12  13  14  15  16  26  30  31  32  33  35 0
 6-311+G(2d,p)
 ****
 37  38 0
 6-311+G(2d,p)
 ****
 1  2  3  4  5  17  18  19  20  21  22  23  24  25 0
 3-21G
 ****
 27  28  29  34  36  39  40  41  42  43  44  45  46 0
 3-21G
 ****


