%nproc=1
%NoSave
%Mem=1900MB
#P OB98/GEN NMR

erre ene a

0 1
  C     -241.753    -145.364     -68.563
  O     -241.646    -145.010     -67.199
  H     -240.754    -145.596     -68.943
  H     -242.156    -144.528     -69.141
  H     -242.387    -146.246     -68.684
  P     -242.980    -144.617     -66.402
  C     -242.536    -142.118     -66.924
  O     -243.427    -143.214     -67.053
  C     -243.300    -140.799     -67.044
  O     -244.124    -140.775     -68.232
  C     -244.268    -140.514     -65.899
  O     -243.631    -140.137     -64.693
  C     -245.066    -139.376     -66.514
  O     -244.290    -138.166     -66.476
  C     -245.247    -139.891     -67.961
  N     -246.515    -140.592     -68.157
  C     -247.558    -139.853     -68.727
  O     -247.399    -138.674     -69.032
  N     -248.778    -140.463     -68.909
  C     -248.946    -141.693     -68.535
  N     -250.175    -142.244     -68.738
  C     -247.877    -142.502     -67.911
  C     -246.703    -141.899     -67.757
  O     -242.883    -144.630     -64.911
  O     -244.098    -145.608     -66.976
  H     -243.570    -138.271     -67.124
  H     -244.946    -145.413     -66.508
  H     -248.083    -143.513     -67.587
  H     -245.873    -142.425     -67.299
  H     -245.185    -139.061     -68.680
  H     -246.003    -139.176     -65.987
  H     -244.945    -141.365     -65.739
  H     -242.556    -139.997     -67.150
  H     -250.886    -141.666     -69.161
  H     -241.775    -142.202     -67.706
  H     -250.419    -143.170     -68.401
  H     -242.047    -142.146     -65.945
  P     -244.337    -140.606     -63.321
  C     -245.742    -138.400     -63.261
  O     -245.732    -139.819     -63.245
  O     -243.434    -139.911     -62.198
  O     -244.452    -142.089     -63.138
  H     -242.789    -140.549     -61.831
  H     -246.751    -138.050     -63.203
  H     -245.294    -138.050     -64.168
  H     -245.188    -138.030     -62.424

 6  7  8  9  10  11  12  13  14  15  16  26  30  31  32  33  35 0
 6-311+G(2d,p)
 ****
 37  38 0
 6-311+G(2d,p)
 ****
 1  2  3  4  5  17  18  19  20  21  22  23  24  25 0
 3-21G
 ****
 27  28  29  34  36  39  40  41  42  43  44  45  46 0
 3-21G
 ****


