%nproc=1
%NoSave
%Mem=1900MB
#P OB98/GEN NMR

erre ene a

0 1
  C     -345.717     157.367     -97.854
  O     -345.091     156.099     -97.687
  P     -344.946     155.143     -98.965
  C     -345.167     152.615     -98.204
  O     -344.355     153.727     -98.519
  C     -344.350     151.608     -97.380
  O     -344.021     152.166     -96.090
  C     -345.087     150.298     -97.128
  O     -344.907     149.375     -98.186
  C     -344.476     149.842     -95.817
  O     -343.178     149.263     -96.043
  C     -344.347     151.185     -95.061
  N     -345.515     151.671     -94.297
  C     -345.790     151.135     -93.040
  O     -345.120     150.261     -92.499
  N     -346.880     151.655     -92.390
  C     -347.607     152.739     -92.779
  O     -348.539     153.198     -92.127
  C     -347.183     153.363     -94.036
  C     -346.188     152.807     -94.728
  O     -343.757     155.804     -99.800
  O     -346.196     155.004     -99.777
  H     -342.632     149.941     -96.481
  H     -344.088     156.130    -100.660
  H     -347.139     151.228     -91.513
  H     -347.703     154.257     -94.357
  H     -345.866     153.259     -95.665
  H     -343.502     151.153     -94.361
  H     -345.079     149.063     -95.350
  H     -346.151     150.489     -96.954
  H     -343.408     151.409     -97.909
  H     -345.542     152.140     -99.113
  H     -346.041     152.948     -97.636
  P     -346.090     148.365     -98.569
  C     -344.300     146.568     -98.174
  O     -345.365     146.994     -98.998
  O     -347.111     148.881     -99.526
  O     -346.735     147.982     -97.151
  H     -347.521     148.543     -96.964
  H     -344.003     145.557     -98.475
  H     -344.617     146.545     -97.124
  H     -343.445     147.240     -98.289
  H     -345.737     157.881     -96.916
  H     -346.718     157.227     -98.205
  H     -345.167     157.945     -98.566

 3  4  5  6  7  8  9  10  11  12  13  23  28  29  30  31  32 0
 6-311+G(2d,p)
 ****
 33  34 0
 6-311+G(2d,p)
 ****
 1  2  14  15  16  17  18  19  20  21  22  24  25  26  27 0
 3-21G
 ****
 35  36  37  38  39  40  41  42  43  44  45 0
 3-21G
 ****


