%nproc=1
%NoSave
%Mem=1900MB
#P OB98/GEN NMR

erre ene a

0 1
  C     -245.923     -87.843     352.529
  O     -245.467     -87.534     353.829
  H     -246.978     -87.577     352.452
  H     -245.814     -88.915     352.341
  H     -245.359     -87.277     351.780
  P     -243.903     -87.738     354.125
  C     -244.018     -89.550     355.997
  O     -243.737     -89.252     354.636
  C     -244.144     -91.064     356.182
  O     -242.818     -91.658     356.105
  C     -244.745     -91.461     357.537
  O     -245.575     -92.615     357.359
  C     -243.525     -91.827     358.363
  O     -243.810     -92.704     359.449
  C     -242.622     -92.447     357.295
  N     -241.212     -92.457     357.687
  C     -240.885     -93.073     358.888
  O     -241.681     -93.670     359.613
  N     -239.563     -92.976     359.260
  C     -238.579     -92.325     358.579
  O     -237.425     -92.259     358.974
  C     -238.988     -91.689     357.315
  C     -240.266     -91.780     356.937
  O     -243.663     -86.877     355.455
  O     -242.979     -87.354     353.020
  H     -243.411     -85.963     355.229
  H     -243.011     -92.756     360.015
  H     -239.308     -93.418     360.136
  H     -238.235     -91.161     356.747
  H     -240.603     -91.314     356.016
  H     -242.951     -93.469     357.067
  H     -243.068     -90.919     358.776
  H     -245.329     -90.661     357.996
  H     -244.733     -91.479     355.351
  H     -244.957     -89.073     356.282
  H     -243.211     -89.158     356.624
  P     -247.035     -92.586     358.030
  C     -246.803     -93.485     360.478
  O     -246.792     -92.367     359.604
  O     -247.475     -94.116     357.905
  O     -247.952     -91.601     357.380
  H     -246.743     -94.746     358.031
  H     -246.626     -93.156     361.481
  H     -246.036     -94.172     360.188
  H     -247.755     -93.970     360.425

 6  7  8  9  10  11  12  13  14  15  16  27  31  32  33  34  35 0
 6-311+G(2d,p)
 ****
 36  37 0
 6-311+G(2d,p)
 ****
 1  2  3  4  5  17  18  19  20  21  22  23  24  25 0
 3-21G
 ****
 26  28  29  30  38  39  40  41  42  43  44  45 0
 3-21G
 ****


