%nproc=1
%NoSave
%Mem=1900MB
#P OB98/GEN NMR

erre ene a

0 1
  C       98.057     374.508     151.178
  O       97.711     374.658     149.811
  P       98.807     375.088     148.731
  C       97.960     377.570     148.881
  O       99.041     376.663     148.848
  C       98.236     378.628     149.961
  O       98.633     377.990     151.193
  C       99.350     379.579     149.541
  O       98.815     380.747     148.939
  C      100.066     379.850     150.850
  O       99.374     380.858     151.606
  C       99.953     378.478     151.556
  N      100.935     377.429     151.208
  C      101.585     376.734     152.222
  O      101.369     376.911     153.422
  N      102.526     375.822     151.812
  C      102.831     375.524     150.514
  O      103.827     374.899     150.164
  C      101.927     376.088     149.506
  C      101.051     377.014     149.891
  O       98.025     374.935     147.342
  O      100.075     374.298     148.753
  H       98.492     380.497     151.826
  H       98.251     374.088     146.914
  H      103.098     375.414     152.544
  H      102.042     375.770     148.482
  H      100.399     377.478     149.152
  H       99.976     378.590     152.646
  H      101.072     380.234     150.680
  H      100.048     379.074     148.860
  H       97.309     379.187     150.151
  H       97.029     377.036     149.099
  H       97.841     378.047     147.906
  P       99.168     381.087     147.416
  C      100.081     383.390     148.085
  O      100.378     382.141     147.493
  O       98.017     381.497     146.563
  O       99.856     379.737     146.888
  H       99.197     379.200     146.404
  H      101.014     383.940     148.236
  H       99.589     383.253     149.052
  H       99.435     383.972     147.418
  H       97.191     374.218     151.735
  H       98.429     375.437     151.556
  H       98.812     373.756     151.274

 3  4  5  6  7  8  9  10  11  12  13  23  28  29  30  31  32 0
 6-311+G(2d,p)
 ****
 33  34 0
 6-311+G(2d,p)
 ****
 1  2  14  15  16  17  18  19  20  21  22  24  25  26  27 0
 3-21G
 ****
 35  36  37  38  39  40  41  42  43  44  45 0
 3-21G
 ****


