%nproc=1
%NoSave
%Mem=1900MB
#P OB98/GEN NMR

erre ene a

0 1
  C     -727.295      77.815    -237.709
  O     -727.887      78.586    -236.667
  P     -728.653      79.944    -237.087
  C     -727.927      82.204    -238.139
  O     -727.554      80.884    -237.755
  C     -726.718      83.132    -238.088
  O     -725.609      82.584    -238.832
  C     -726.966      84.518    -238.701
  O     -727.633      85.387    -237.801
  C     -725.534      84.983    -238.938
  O     -724.970      85.485    -237.709
  C     -724.848      83.688    -239.373
  N     -722.563      85.477    -243.534
  C     -722.285      85.715    -242.191
  N     -721.297      86.599    -241.936
  N     -722.905      85.133    -241.192
  C     -723.890      84.287    -241.615
  C     -724.240      83.946    -242.906
  C     -723.547      84.609    -243.989
  O     -723.787      84.478    -245.178
  N     -725.274      83.042    -242.916
  C     -725.520      82.797    -241.640
  N     -724.733      83.557    -240.816
  O     -728.930      80.651    -235.673
  O     -729.904      79.739    -237.876
  H     -725.367      86.369    -237.569
  H     -729.616      81.334    -235.782
  H     -722.053      85.945    -244.244
  H     -726.268      82.113    -241.278
  H     -723.829      83.601    -238.947
  H     -725.479      85.796    -239.668
  H     -720.815      87.127    -242.644
  H     -727.494      84.427    -239.654
  H     -721.106      86.846    -240.962
  H     -726.406      83.238    -237.038
  H     -728.693      82.564    -237.457
  H     -728.341      82.181    -239.156
  P     -728.421      86.618    -238.459
  C     -727.852      88.329    -240.327
  O     -727.442      87.210    -239.581
  O     -728.400      87.727    -237.291
  O     -729.819      86.301    -238.897
  H     -729.142      88.332    -237.378
  H     -726.987      88.754    -240.843
  H     -728.274      89.099    -239.672
  H     -728.606      88.044    -241.070
  H     -726.826      76.950    -237.290
  H     -726.563      78.406    -238.218
  H     -728.052      77.510    -238.401

 3  4  5  6  7  8  9  10  11  12  23  26  30  31 0
 6-311+G(2d,p)
 ****
 33  35  36  37  38 0
 6-311+G(2d,p)
 ****
 1  2  13  14  15  16  17  18  19  20  21  22  24  25 0
 3-21G
 ****
 27  28  29  32  34  39  40  41  42  43  44  45  46  47  48  49 0
 3-21G
 ****


