%nproc=1
%NoSave
%Mem=1900MB
#P OB98/GEN NMR

erre ene a

0 1
  C     -450.595     487.216     237.272
  O     -450.672     487.560     235.901
  H     -451.474     486.636     237.561
  H     -449.701     486.612     237.436
  H     -450.527     488.121     237.884
  P     -451.943     488.425     235.441
  C     -450.808     490.550     234.476
  O     -451.470     489.328     234.194
  C     -449.691     490.785     233.464
  O     -448.609     489.864     233.751
  C     -450.106     490.593     231.995
  O     -449.870     491.790     231.246
  C     -449.177     489.505     231.477
  O     -448.707     489.749     230.152
  C     -448.031     489.511     232.488
  N     -444.174     486.713     230.679
  C     -444.356     488.050     230.737
  N     -445.359     488.735     231.330
  C     -446.225     487.891     231.925
  C     -446.153     486.511     231.978
  C     -445.075     485.912     231.301
  N     -444.914     484.548     231.191
  N     -447.226     485.991     232.680
  C     -447.948     487.045     233.012
  N     -447.397     488.208     232.560
  O     -452.114     489.489     236.630
  O     -453.190     487.639     235.218
  H     -448.225     488.946     229.872
  H     -453.047     489.519     236.907
  H     -443.602     488.647     230.234
  H     -448.901     487.011     233.527
  H     -447.272     490.255     232.238
  H     -449.709     488.545     231.484
  H     -451.157     490.293     231.894
  H     -449.299     491.799     233.617
  H     -450.372     490.509     235.482
  H     -444.188     484.205     230.588
  H     -445.650     483.951     231.554
  H     -451.538     491.364     234.451
  P     -450.520     491.863     229.777
  C     -451.815     494.071     230.277
  O     -450.838     493.414     229.481
  O     -451.968     491.229     229.998
  O     -449.742     491.145     228.728
  H     -452.295     490.836     229.162
  H     -451.910     495.088     229.958
  H     -451.515     494.045     231.304
  H     -452.756     493.574     230.168

 6  7  8  9  10  11  12  13  14  15  25  28  32  33  34  35 0
 6-311+G(2d,p)
 ****
 36  39  40 0
 6-311+G(2d,p)
 ****
 1  2  3  4  5  16  17  18  19  20  21  22  23  24 0
 3-21G
 ****
 26  27  29  30  31  37  38  41  42  43  44  45  46  47  48 0
 3-21G
 ****


