%nproc=1
%NoSave
%Mem=1900MB
#P OB98/GEN NMR

erre ene a

0 1
  C     -335.251     200.874     962.617
  O     -335.824     199.688     962.096
  H     -334.777     201.423     961.799
  H     -334.492     200.633     963.367
  H     -336.024     201.508     963.059
  P     -336.529     198.662     963.105
  C     -338.953     199.085     962.330
  O     -337.877     198.163     962.381
  C     -339.833     198.797     961.101
  O     -339.125     199.266     959.932
  C     -340.120     197.288     960.918
  O     -341.505     196.998     960.800
  C     -339.208     196.899     959.762
  O     -339.647     195.783     959.016
  C     -339.091     198.202     958.961
  N     -337.881     198.282     958.144
  C     -338.000     198.007     956.777
  O     -339.050     197.723     956.209
  N     -336.832     198.086     956.046
  C     -335.601     198.385     956.546
  O     -334.596     198.444     955.844
  C     -335.533     198.643     957.990
  C     -336.656     198.576     958.717
  O     -336.717     199.161     964.502
  O     -335.592     197.365     963.055
  H     -339.637     195.003     959.606
  H     -335.032     197.343     963.854
  H     -336.918     197.900     955.066
  H     -334.567     198.876     958.419
  H     -336.638     198.771     959.784
  H     -339.950     198.319     958.291
  H     -338.219     196.645     960.173
  H     -339.817     196.725     961.816
  H     -340.762     199.374     961.184
  H     -338.537     200.088     962.262
  H     -339.560     199.008     963.237
  P     -342.261     195.825     961.583
  C     -343.954     197.074     963.153
  O     -343.731     196.335     961.952
  O     -341.474     195.162     962.676
  O     -342.521     194.716     960.431
  H     -342.476     193.850     960.873
  H     -344.991     197.327     963.229
  H     -343.369     197.970     963.135
  H     -343.670     196.479     963.996

 6  7  8  9  10  11  12  13  14  15  16  26  31  32  33  34  35 0
 6-311+G(2d,p)
 ****
 36  37 0
 6-311+G(2d,p)
 ****
 1  2  3  4  5  17  18  19  20  21  22  23  24  25 0
 3-21G
 ****
 27  28  29  30  38  39  40  41  42  43  44  45 0
 3-21G
 ****


