%nproc=1
%NoSave
%Mem=1900MB
#P OB98/GEN NMR

erre ene a

0 1
  C     1187.395     572.896    1688.780
  O     1186.274     572.760    1687.909
  H     1187.820     571.904    1688.952
  H     1187.076     573.334    1689.725
  H     1188.152     573.530    1688.311
  P     1185.491     574.107    1687.534
  C     1184.104     574.061    1689.736
  O     1184.079     574.038    1688.314
  C     1183.084     575.060    1690.270
  O     1183.429     576.410    1689.870
  C     1181.654     574.805    1689.809
  O     1181.020     573.807    1690.612
  C     1181.031     576.191    1689.989
  O     1180.661     576.428    1691.367
  C     1182.192     577.115    1689.582
  N     1182.215     581.024    1686.358
  C     1182.321     581.007    1687.749
  N     1182.385     582.204    1688.370
  N     1182.344     579.890    1688.447
  C     1182.238     578.786    1687.713
  C     1182.155     578.680    1686.333
  C     1182.143     579.909    1685.542
  O     1182.133     579.999    1684.330
  N     1182.088     577.366    1685.952
  C     1182.099     576.684    1687.068
  N     1182.161     577.500    1688.159
  O     1185.073     573.892    1685.996
  O     1186.270     575.371    1687.710
  H     1180.052     575.721    1691.651
  H     1185.040     574.756    1685.549
  H     1182.222     581.906    1685.888
  H     1182.030     575.601    1687.130
  H     1182.205     578.047    1690.147
  H     1180.121     576.305    1689.399
  H     1182.043     583.041    1687.937
  H     1181.624     574.532    1688.741
  H     1182.427     582.186    1689.389
  H     1183.147     575.027    1691.371
  H     1185.106     574.356    1690.081
  H     1183.895     573.048    1690.111
  P     1180.776     572.361    1689.941
  C     1178.937     573.242    1688.302
  O     1179.272     572.362    1689.393
  O     1180.718     571.367    1691.207
  O     1181.829     571.954    1688.970
  H     1180.850     570.471    1690.928
  H     1177.903     573.125    1688.054
  H     1179.537     572.999    1687.450
  H     1179.122     574.255    1688.591

 6  7  8  9  10  11  12  13  14  15  26  29  33  34 0
 6-311+G(2d,p)
 ****
 36  38  39  40  41 0
 6-311+G(2d,p)
 ****
 1  2  3  4  5  16  17  18  19  20  21  22  23  24  25 0
 3-21G
 ****
 27  28  30  31  32  35  37  42  43  44  45  46  47 0
 3-21G
 ****
 48  49 0
 3-21G
 ****


