%nproc=1
%NoSave
%Mem=1900MB
#P OB98/GEN NMR

erre ene a

0 1
  C      126.432      21.754      69.666
  O      127.764      22.187      69.873
  P      128.988      21.409      69.200
  C      129.558      20.030      71.286
  O      129.120      19.984      69.935
  C      129.735      18.627      71.865
  O      128.450      17.947      71.856
  C      130.728      17.738      71.098
  O      131.365      16.901      72.068
  C      129.814      16.899      70.215
  O      130.429      15.701      69.768
  C      128.639      16.690      71.166
  N      126.172      12.926      68.731
  C      127.414      12.989      69.269
  N      128.006      14.038      69.878
  C      127.181      15.101      69.910
  C      125.905      15.194      69.375
  C      125.385      14.030      68.778
  N      124.115      13.936      68.259
  N      125.404      16.471      69.553
  C      126.357      17.129      70.179
  N      127.426      16.324      70.473
  O      130.265      22.180      69.112
  O      128.447      21.016      67.744
  H      131.150      15.933      69.153
  H      128.869      21.587      67.070
  H      127.999      12.080      69.208
  H      126.330      18.178      70.442
  H      128.845      15.918      71.918
  H      129.521      17.477      69.334
  H      131.471      18.297      70.518
  H      130.041      18.727      72.914
  H      128.803      20.567      71.868
  H      123.801      13.019      67.973
  H      123.428      14.645      68.512
  H      130.499      20.587      71.350
  P      132.954      16.685      72.018
  C      132.729      14.764      70.341
  O      133.286      16.042      70.588
  O      133.538      15.973      73.196
  O      133.525      18.181      71.888
  H      134.475      18.183      72.131
  H      133.349      14.001      70.819
  H      132.714      14.587      69.257
  H      131.711      14.698      70.725
  H      125.761      22.398      70.195
  H      126.323      20.752      70.026
  H      126.206      21.784      68.621

 3  4  5  6  7  8  9  10  11  12  22  25  29  30  31  32 0
 6-311+G(2d,p)
 ****
 33  36  37 0
 6-311+G(2d,p)
 ****
 1  2  13  14  15  16  17  18  19  20  21  23  24  26 0
 3-21G
 ****
 27  28  34  35  38  39  40  41  42  43  44  45  46  47  48 0
 3-21G
 ****


