%nproc=1
%NoSave
%Mem=1900MB
#P OB98/GEN NMR

erre ene a

0 1
  C      232.759    -244.678     582.975
  O      232.479    -243.750     584.005
  H      233.546    -245.357     583.318
  H      233.115    -244.153     582.083
  H      231.870    -245.269     582.729
  P      231.251    -242.737     583.819
  C      230.402    -241.348     581.815
  O      231.535    -241.902     582.480
  C      230.864    -240.526     580.612
  O      231.595    -241.359     579.686
  C      229.720    -239.919     579.811
  O      229.179    -238.789     580.464
  C      230.419    -239.620     578.493
  O      231.164    -238.395     578.578
  C      231.367    -240.831     578.357
  N      230.848    -241.863     577.460
  C      231.570    -242.084     576.290
  O      232.580    -241.443     575.987
  N      231.081    -243.059     575.459
  C      229.905    -243.733     575.628
  O      229.464    -244.533     574.806
  C      229.172    -243.441     576.866
  C      229.665    -242.533     577.712
  O      230.907    -241.915     585.015
  O      230.035    -243.691     583.395
  H      231.628    -238.415     579.439
  H      229.432    -243.801     584.154
  H      231.585    -243.224     574.605
  H      228.240    -243.965     577.040
  H      229.135    -242.300     578.626
  H      232.350    -240.509     577.982
  H      229.718    -239.518     577.667
  H      228.944    -240.674     579.630
  H      231.548    -239.743     580.968
  H      229.867    -240.702     582.516
  H      229.739    -242.163     581.505
  P      227.659    -238.361     580.190
  C      226.305    -238.202     578.011
  O      227.544    -237.921     578.650
  O      227.083    -237.390     581.170
  O      226.860    -239.750     580.233
  H      226.194    -239.717     580.946
  H      226.344    -237.867     576.995
  H      225.516    -237.694     578.524
  H      226.124    -239.256     578.032

 6  7  8  9  10  11  12  13  14  15  16  26  31  32  33  34  35 0
 6-311+G(2d,p)
 ****
 36  37 0
 6-311+G(2d,p)
 ****
 1  2  3  4  5  17  18  19  20  21  22  23  24  25 0
 3-21G
 ****
 27  28  29  30  38  39  40  41  42  43  44  45 0
 3-21G
 ****


