%nproc=1
%NoSave
%Mem=1900MB
#P OB98/GEN NMR

erre ene a

0 1
  C      504.580    -662.420     295.404
  O      504.683    -662.518     296.810
  H      505.298    -661.672     295.056
  H      503.575    -662.098     295.130
  H      504.806    -663.375     294.920
  P      504.016    -663.774     297.545
  C      506.030    -663.623     299.162
  O      504.627    -663.836     299.026
  C      506.329    -662.200     299.639
  O      505.681    -661.967     300.912
  C      507.836    -662.025     299.864
  O      508.254    -660.673     299.671
  C      507.997    -662.390     301.336
  O      509.181    -661.851     301.910
  C      506.697    -661.835     301.923
  N      504.908    -661.307     306.660
  C      505.321    -660.336     305.773
  N      505.277    -659.061     306.217
  N      505.765    -660.600     304.570
  C      505.824    -661.927     304.285
  C      505.461    -662.977     305.103
  C      504.944    -662.671     306.414
  O      504.576    -663.492     307.246
  N      505.683    -664.187     304.478
  C      506.184    -663.857     303.305
  N      506.278    -662.496     303.134
  O      504.700    -665.038     296.835
  O      502.521    -663.850     297.475
  H      509.412    -662.396     302.686
  H      504.125    -665.818     296.901
  H      504.568    -661.049     307.575
  H      506.489    -664.565     302.534
  H      506.806    -660.768     302.146
  H      508.068    -663.482     301.407
  H      505.127    -658.822     307.180
  H      508.426    -662.671     299.223
  H      505.852    -658.376     305.706
  H      505.919    -661.470     298.934
  H      506.476    -663.793     298.168
  H      506.460    -664.367     299.834
  P      509.215    -660.371     298.423
  C      509.109    -657.746     298.437
  O      509.864    -658.925     298.656
  O      508.203    -660.156     297.208
  O      510.203    -661.454     298.155
  H      508.209    -660.937     296.629
  H      509.716    -656.890     298.646
  H      508.255    -657.744     299.082
  H      508.786    -657.714     297.418

 6  7  8  9  10  11  12  13  14  15  26  29  33  34 0
 6-311+G(2d,p)
 ****
 36  38  39  40  41 0
 6-311+G(2d,p)
 ****
 1  2  3  4  5  16  17  18  19  20  21  22  23  24  25 0
 3-21G
 ****
 27  28  30  31  32  35  37  42  43  44  45  46  47 0
 3-21G
 ****
 48  49 0
 3-21G
 ****


