%nproc=1
%NoSave
%Mem=1900MB
#P OB98/GEN NMR

erre ene a

0 1
  C      -27.595      -8.819      16.284
  O      -26.860      -9.624      17.183
  H      -28.661      -9.003      16.447
  H      -27.350      -9.090      15.255
  H      -27.392      -7.760      16.453
  P      -25.270      -9.450      17.258
  C      -24.575     -10.704      15.113
  O      -24.720      -9.442      15.749
  C      -23.287     -10.748      14.284
  O      -23.370      -9.739      13.244
  C      -22.020     -10.475      15.100
  O      -20.962     -11.298      14.610
  C      -21.718      -9.019      14.805
  O      -20.334      -8.712      14.958
  C      -22.222      -8.877      13.371
  N      -20.401      -4.390      11.932
  C      -19.765      -5.607      12.066
  N      -18.443      -5.634      11.795
  N      -20.371      -6.705      12.437
  C      -21.698      -6.536      12.654
  C      -22.443      -5.385      12.557
  C      -21.755      -4.173      12.166
  O      -22.262      -3.063      12.046
  N      -23.758      -5.614      12.877
  C      -23.806      -6.900      13.169
  N      -22.580      -7.502      13.060
  O      -24.572     -10.409      18.170
  O      -25.059      -7.937      17.728
  H      -19.834      -9.390      14.452
  H      -24.789      -7.896      18.663
  H      -19.885      -3.574      11.655
  H      -24.694      -7.441      13.466
  H      -21.473      -9.186      12.632
  H      -22.288      -8.377      15.488
  H      -17.918      -4.832      11.481
  H      -22.166     -10.661      16.164
  H      -17.958      -6.521      11.855
  H      -23.230     -11.720      13.782
  H      -25.438     -10.861      14.459
  H      -24.559     -11.492      15.874
  P      -20.720     -12.737      15.278
  C      -19.152     -11.689      17.023
  O      -20.277     -12.528      16.808
  O      -19.859     -13.670      14.495
  O      -22.210     -13.316      15.422
  H      -22.185     -14.284      15.287
  H      -18.951     -11.624      18.072
  H      -19.357     -10.712      16.638
  H      -18.300     -12.099      16.521

 6  7  8  9  10  11  12  13  14  15  26  29  33  34 0
 6-311+G(2d,p)
 ****
 36  38  39  40  41 0
 6-311+G(2d,p)
 ****
 1  2  3  4  5  16  17  18  19  20  21  22  23  24  25 0
 3-21G
 ****
 27  28  30  31  32  35  37  42  43  44  45  46  47 0
 3-21G
 ****
 48  49 0
 3-21G
 ****


