%nproc=1
%NoSave
%Mem=1900MB
#P OB98/GEN NMR

erre ene a

0 1
  C      632.360     -48.004     563.925
  O      632.035     -46.741     564.461
  H      632.286     -47.951     562.832
  H      631.660     -48.760     564.283
  H      633.383     -48.288     564.187
  P      632.230     -46.501     566.033
  C      629.866     -46.999     566.934
  O      631.201     -47.471     566.787
  C      629.236     -47.608     568.192
  O      629.050     -49.026     568.004
  C      630.090     -47.464     569.439
  O      630.043     -46.146     569.952
  C      629.468     -48.524     570.333
  O      628.284     -48.034     570.969
  C      629.124     -49.636     569.313
  N      630.097     -50.726     569.341
  C      629.769     -51.826     570.127
  O      628.725     -51.920     570.771
  N      630.721     -52.809     570.200
  C      631.982     -52.731     569.694
  O      632.877     -53.515     569.996
  C      632.251     -51.580     568.819
  C      631.308     -50.639     568.693
  O      632.195     -45.077     566.478
  O      633.649     -47.176     566.346
  H      634.329     -46.478     566.422
  H      628.558     -47.264     571.499
  H      630.504     -53.591     570.808
  H      633.222     -51.516     568.340
  H      631.497     -49.756     568.084
  H      628.127     -50.051     569.527
  H      630.159     -48.844     571.107
  H      631.122     -47.747     569.216
  H      628.246     -47.146     568.333
  H      629.287     -47.298     566.055
  H      629.875     -45.906     566.999
  P      631.374     -45.447     570.512
  C      630.488     -44.975     572.876
  O      631.442     -45.690     572.098
  O      631.577     -44.030     570.087
  O      632.557     -46.383     569.966
  H      633.231     -45.823     569.540
  H      630.623     -45.210     573.911
  H      629.500     -45.253     572.573
  H      630.623     -43.924     572.729

 6  7  8  9  10  11  12  13  14  15  16  27  31  32  33  34  35 0
 6-311+G(2d,p)
 ****
 36  37 0
 6-311+G(2d,p)
 ****
 1  2  3  4  5  17  18  19  20  21  22  23  24  25 0
 3-21G
 ****
 26  28  29  30  38  39  40  41  42  43  44  45 0
 3-21G
 ****


