%nproc=1
%NoSave
%Mem=1900MB
#P OB98/GEN NMR

erre ene a

0 1
  C      -49.560       4.047      98.328
  O      -49.190       4.706      97.134
  P      -48.277       3.965      96.043
  C      -48.258       6.345      95.050
  O      -48.252       4.947      94.773
  C      -47.498       7.117      93.972
  O      -46.102       6.759      93.981
  C      -47.987       6.849      92.555
  O      -49.190       7.551      92.301
  C      -46.792       7.321      91.738
  O      -46.814       8.746      91.557
  C      -45.604       6.904      92.633
  N      -44.953       5.689      92.163
  C      -43.735       5.867      91.497
  O      -43.288       6.998      91.308
  N      -43.078       4.759      91.018
  C      -43.606       3.584      91.170
  N      -42.914       2.527      90.663
  C      -44.903       3.357      91.837
  C      -45.516       4.443      92.303
  O      -48.651       2.551      95.753
  O      -46.799       4.121      96.643
  H      -47.456       8.919      90.840
  H      -46.655       3.515      97.409
  H      -45.307       2.361      91.930
  H      -46.474       4.369      92.804
  H      -44.851       7.703      92.669
  H      -46.772       6.871      90.741
  H      -48.128       5.772      92.409
  H      -47.576       8.188      94.202
  H      -42.044       2.729      90.186
  H      -47.774       6.506      96.018
  H      -43.249       1.578      90.694
  H      -49.293       6.695      95.121
  P      -50.409       6.808      91.580
  C      -50.863       9.013      90.350
  O      -51.429       7.930      91.062
  O      -51.029       5.693      92.356
  O      -49.760       6.257      90.223
  H      -50.059       5.340      90.077
  H      -51.653       9.508      89.779
  H      -50.089       8.668      89.660
  H      -50.433       9.727      91.055
  H      -50.164       4.700      98.923
  H      -48.680       3.778      98.875
  H      -50.116       3.164      98.091

 3  4  5  6  7  8  9  10  11  12  13  23  27  28  29  30  32 0
 6-311+G(2d,p)
 ****
 34  35 0
 6-311+G(2d,p)
 ****
 1  2  14  15  16  17  18  19  20  21  22  24  25  26 0
 3-21G
 ****
 31  33  36  37  38  39  40  41  42  43  44  45  46 0
 3-21G
 ****


