%nproc=1
%NoSave
%Mem=1900MB
#P OB98/GEN NMR

erre ene a

0 1
  C     -937.649     130.087    -448.460
  O     -939.061     130.053    -448.469
  H     -937.331     131.137    -448.426
  H     -937.254     129.638    -449.380
  H     -937.252     129.572    -447.585
  P     -939.797     128.626    -448.331
  C     -941.173     129.482    -446.316
  O     -941.208     128.899    -447.621
  C     -942.198     130.623    -446.207
  O     -941.671     131.787    -446.926
  C     -943.585     130.300    -446.825
  O     -944.549     131.055    -446.079
  C     -943.412     130.856    -448.227
  O     -944.620     130.929    -448.937
  C     -942.681     132.169    -447.893
  N     -942.081     132.850    -449.033
  C     -942.037     134.247    -449.015
  O     -942.477     134.940    -448.091
  N     -941.465     134.839    -450.114
  C     -940.940     134.201    -451.196
  O     -940.411     134.777    -452.130
  C     -941.013     132.723    -451.162
  C     -941.556     132.133    -450.096
  O     -938.980     127.531    -447.725
  O     -940.228     128.283    -449.840
  H     -939.603     127.631    -450.210
  H     -944.436     131.198    -449.860
  H     -941.426     135.846    -450.099
  H     -940.622     132.196    -452.016
  H     -941.632     131.051    -450.046
  H     -943.376     132.846    -447.394
  H     -942.764     130.190    -448.816
  H     -943.828     129.239    -446.771
  H     -942.282     130.918    -445.156
  H     -940.169     129.871    -446.136
  H     -941.399     128.709    -445.564
  P     -946.138     130.761    -446.132
  C     -946.526     130.181    -443.637
  O     -946.761     131.112    -444.685
  O     -946.480     129.382    -446.616
  O     -946.736     131.870    -447.113
  H     -947.559     131.545    -447.514
  H     -946.989     130.531    -442.738
  H     -945.473     130.080    -443.479
  H     -946.939     129.231    -443.905

 6  7  8  9  10  11  12  13  14  15  16  27  31  32  33  34  35 0
 6-311+G(2d,p)
 ****
 36  37 0
 6-311+G(2d,p)
 ****
 1  2  3  4  5  17  18  19  20  21  22  23  24  25 0
 3-21G
 ****
 26  28  29  30  38  39  40  41  42  43  44  45 0
 3-21G
 ****


