%nproc=1
%NoSave
%Mem=1900MB
#P OB98/GEN NMR

erre ene a

0 1
  C     -563.406    -475.081    -899.425
  O     -563.194    -474.812    -898.055
  P     -563.494    -476.010    -897.025
  C     -565.640    -476.930    -895.855
  O     -565.088    -476.022    -896.835
  C     -566.680    -476.216    -894.995
  O     -567.545    -475.428    -895.805
  C     -567.604    -477.156    -894.225
  O     -566.935    -477.692    -893.095
  C     -568.746    -476.231    -893.895
  O     -568.481    -475.505    -892.665
  C     -568.788    -475.271    -895.095
  N     -569.937    -475.517    -895.975
  C     -571.177    -475.202    -895.415
  O     -571.262    -474.790    -894.245
  N     -572.315    -475.430    -896.195
  C     -572.191    -475.890    -897.385
  N     -573.342    -476.092    -898.095
  C     -570.893    -476.250    -897.985
  C     -569.801    -476.040    -897.245
  O     -562.956    -475.439    -895.625
  O     -562.864    -477.327    -897.375
  H     -568.469    -476.194    -891.965
  H     -562.687    -476.154    -895.025
  H     -570.859    -476.643    -899.005
  H     -568.799    -476.272    -897.585
  H     -568.830    -474.233    -894.775
  H     -569.677    -476.793    -893.745
  H     -567.935    -477.970    -894.875
  H     -566.154    -475.537    -894.295
  H     -574.202    -475.845    -897.635
  H     -564.839    -477.308    -895.215
  H     -573.358    -476.425    -899.045
  H     -566.100    -477.785    -896.395
  P     -567.667    -478.875    -892.295
  C     -569.797    -478.979    -890.865
  O     -569.085    -478.256    -891.885
  O     -566.847    -478.879    -890.925
  O     -567.680    -480.222    -892.935
  H     -567.158    -479.632    -890.345
  H     -570.649    -478.353    -890.555
  H     -569.142    -479.142    -890.005
  H     -570.147    -479.915    -891.265
  H     -563.172    -474.209    -900.000
  H     -564.430    -475.347    -899.582
  H     -562.776    -475.890    -899.731

 3  4  5  6  7  8  9  10  11  12  13  21  23  27  28  29  30  32 0
 6-311+G(2d,p)
 ****
 34  35 0
 6-311+G(2d,p)
 ****
 1  2  14  15  16  17  18  19  20  22  24  25  26 0
 3-21G
 ****
 31  33  36  37  38  39  40  41  42  43  44  45  46 0
 3-21G
 ****


