%nproc=1
%NoSave
%Mem=1900MB
#P OB98/GEN NMR

erre ene a

0 1
  C      -84.780     -51.395    -211.951
  O      -84.983     -51.179    -210.571
  H      -84.820     -52.470    -212.146
  H      -83.799     -51.020    -212.249
  H      -85.562     -50.902    -212.533
  P      -84.990     -49.655    -210.062
  C      -82.922     -49.965    -208.513
  O      -84.316     -49.704    -208.602
  C      -82.616     -50.819    -207.279
  O      -82.762     -50.006    -206.090
  C      -83.541     -52.028    -207.137
  O      -82.772     -53.170    -206.753
  C      -84.502     -51.631    -206.031
  O      -85.036     -52.763    -205.345
  C      -83.640     -50.693    -205.179
  N      -84.455     -49.751    -204.414
  C      -84.991     -50.215    -203.210
  O      -84.781     -51.373    -202.844
  N      -85.794     -49.380    -202.477
  C      -86.088     -48.203    -202.934
  N      -86.906     -47.431    -202.172
  C      -85.584     -47.690    -204.223
  C      -84.777     -48.504    -204.901
  O      -86.536     -49.387    -209.755
  O      -84.376     -48.668    -210.997
  H      -84.283     -53.315    -205.040
  H      -86.718     -48.424    -209.635
  H      -85.870     -46.708    -204.571
  H      -84.361     -48.212    -205.858
  H      -83.018     -51.268    -204.479
  H      -85.344     -51.076    -206.463
  H      -84.081     -52.261    -208.053
  H      -81.565     -51.125    -207.322
  H      -87.241     -47.820    -201.300
  H      -82.387     -49.013    -208.441
  H      -87.225     -46.512    -202.445
  H      -82.597     -50.494    -209.413
  P      -82.682     -54.352    -207.836
  C      -84.198     -56.170    -206.780
  O      -82.873     -55.740    -207.051
  O      -81.140     -54.356    -208.256
  O      -83.592     -54.162    -209.004
  H      -81.015     -53.884    -209.100
  H      -84.170     -57.103    -206.256
  H      -84.728     -56.294    -207.701
  H      -84.695     -55.438    -206.179

 6  7  8  9  10  11  12  13  14  15  16  26  30  31  32  33  35 0
 6-311+G(2d,p)
 ****
 37  38 0
 6-311+G(2d,p)
 ****
 1  2  3  4  5  17  18  19  20  21  22  23  24  25 0
 3-21G
 ****
 27  28  29  34  36  39  40  41  42  43  44  45  46 0
 3-21G
 ****


