%nproc=1
%NoSave
%Mem=1900MB
#P OB98/GEN NMR

erre ene a

0 1
  C      698.987    -750.217    -150.422
  O      698.406    -749.015    -149.893
  P      698.790    -748.573    -148.404
  C      699.682    -746.275    -147.540
  O      698.693    -746.977    -148.298
  C      699.412    -744.769    -147.561
  O      699.894    -744.159    -148.774
  C      697.932    -744.419    -147.487
  O      697.445    -744.448    -146.156
  C      697.936    -742.994    -148.010
  O      698.350    -742.086    -146.963
  C      699.015    -743.048    -149.106
  N      695.912    -741.183    -152.729
  C      696.209    -740.752    -151.482
  N      697.030    -741.319    -150.576
  C      697.591    -742.426    -151.064
  C      697.390    -742.989    -152.308
  C      696.507    -742.319    -153.167
  N      696.208    -742.766    -154.438
  N      698.132    -744.147    -152.453
  C      698.781    -744.276    -151.316
  N      698.483    -743.264    -150.446
  O      700.365    -748.856    -148.334
  O      698.062    -749.326    -147.340
  H      697.647    -742.105    -146.285
  H      700.613    -749.144    -147.442
  H      695.714    -739.835    -151.168
  H      699.477    -745.059    -151.081
  H      699.631    -742.145    -149.146
  H      696.956    -742.649    -148.349
  H      697.342    -745.059    -148.159
  H      699.930    -744.321    -146.710
  H      700.674    -746.484    -147.949
  H      695.586    -742.218    -155.014
  H      696.662    -743.605    -154.781
  H      699.674    -746.664    -146.510
  P      696.377    -745.593    -145.781
  C      695.746    -746.792    -143.575
  O      696.368    -745.680    -144.189
  O      697.109    -746.935    -146.265
  O      695.044    -745.412    -146.426
  H      696.435    -747.595    -146.548
  H      696.097    -746.863    -142.536
  H      695.998    -747.725    -144.104
  H      694.663    -746.656    -143.575
  H      698.634    -750.374    -151.420
  H      698.707    -751.048    -149.809
  H      700.053    -750.124    -150.431

 3  4  5  6  7  8  9  10  11  12  22  25  29  30  31  32 0
 6-311+G(2d,p)
 ****
 33  36  37 0
 6-311+G(2d,p)
 ****
 1  2  13  14  15  16  17  18  19  20  21  23  24  26 0
 3-21G
 ****
 27  28  34  35  38  39  40  41  42  43  44  45  46  47  48 0
 3-21G
 ****


