%nproc=1
%NoSave
%Mem=1900MB
#P OB98/GEN NMR

erre ene a

0 1
  C     -119.445     -32.521    -163.884
  O     -120.244     -31.494    -164.434
  H     -120.100     -33.278    -163.446
  H     -118.804     -32.118    -163.096
  H     -118.832     -32.994    -164.655
  P     -119.539     -30.357    -165.317
  C     -119.617     -28.657    -163.379
  O     -118.796     -29.371    -164.295
  C     -119.729     -27.198    -163.810
  O     -120.696     -26.509    -162.990
  C     -118.432     -26.408    -163.673
  O     -117.531     -26.732    -164.715
  C     -118.964     -24.983    -163.705
  O     -119.230     -24.566    -165.053
  C     -120.278     -25.128    -162.902
  N     -120.150     -24.708    -161.507
  C     -121.090     -23.791    -161.048
  O     -121.968     -23.313    -161.765
  N     -120.976     -23.425    -159.733
  C     -119.985     -23.814    -158.879
  O     -119.896     -23.413    -157.722
  C     -118.999     -24.755    -159.428
  C     -119.126     -25.153    -160.696
  O     -120.413     -29.679    -166.320
  O     -118.324     -31.127    -166.020
  H     -119.404     -23.606    -165.018
  H     -118.564     -31.352    -166.938
  H     -121.640     -22.752    -159.386
  H     -118.197     -25.080    -158.781
  H     -118.406     -25.843    -161.120
  H     -121.073     -24.531    -163.366
  H     -118.262     -24.263    -163.286
  H     -117.978     -26.591    -162.693
  H     -120.091     -27.175    -164.846
  H     -119.162     -28.710    -162.384
  H     -120.604     -29.129    -163.347
  P     -116.027     -27.167    -164.389
  C     -115.077     -24.790    -164.462
  O     -115.316     -25.931    -163.649
  O     -115.261     -27.725    -165.542
  O     -116.181     -28.248    -163.221
  H     -116.015     -29.144    -163.575
  H     -114.603     -24.029    -163.878
  H     -116.007     -24.421    -164.842
  H     -114.441     -25.061    -165.279

 6  7  8  9  10  11  12  13  14  15  16  26  31  32  33  34  35 0
 6-311+G(2d,p)
 ****
 36  37 0
 6-311+G(2d,p)
 ****
 1  2  3  4  5  17  18  19  20  21  22  23  24  25 0
 3-21G
 ****
 27  28  29  30  38  39  40  41  42  43  44  45 0
 3-21G
 ****


