%nproc=1
%NoSave
%Mem=1900MB
#P OB98/GEN NMR

erre ene a

0 1
  C      -63.579    -163.297    -204.081
  O      -62.428    -163.971    -204.574
  P      -60.990    -163.339    -204.219
  C      -59.855    -161.097    -204.901
  O      -60.789    -162.121    -205.243
  C      -59.348    -160.393    -206.155
  O      -58.587    -161.312    -206.968
  C      -60.440    -159.848    -207.061
  O      -60.927    -158.589    -206.614
  C      -59.675    -159.690    -208.365
  O      -58.887    -158.481    -208.328
  C      -58.762    -160.919    -208.356
  N      -61.221    -162.265    -212.639
  C      -60.890    -161.052    -212.134
  N      -60.244    -160.777    -210.982
  C      -59.967    -161.911    -210.307
  C      -60.277    -163.211    -210.682
  C      -60.924    -163.371    -211.915
  N      -61.236    -164.605    -212.447
  N      -59.837    -164.105    -209.735
  C      -59.264    -163.367    -208.810
  N      -59.307    -162.033    -209.110
  O      -59.969    -164.449    -204.761
  O      -60.773    -163.028    -202.778
  H      -59.510    -157.747    -208.147
  H      -59.112    -164.370    -204.298
  H      -61.173    -160.195    -212.735
  H      -58.795    -163.748    -207.911
  H      -57.767    -160.702    -208.761
  H      -60.337    -159.613    -209.238
  H      -61.248    -160.577    -207.195
  H      -58.669    -159.586    -205.837
  H      -59.009    -161.555    -204.374
  H      -61.528    -164.643    -213.412
  H      -60.837    -165.427    -212.009
  H      -60.343    -160.383    -204.228
  P      -62.439    -158.219    -207.014
  C      -63.651    -157.840    -209.286
  O      -62.420    -158.003    -208.599
  O      -62.618    -156.741    -206.420
  O      -63.462    -159.172    -206.482
  H      -63.560    -156.558    -206.235
  H      -63.450    -157.403    -210.263
  H      -64.321    -157.170    -208.736
  H      -64.131    -158.815    -209.421
  H      -64.459    -163.822    -204.389
  H      -63.603    -162.301    -204.471
  H      -63.541    -163.261    -203.012

 3  4  5  6  7  8  9  10  11  12  22  25  29  30  31  32 0
 6-311+G(2d,p)
 ****
 33  36  37 0
 6-311+G(2d,p)
 ****
 1  2  13  14  15  16  17  18  19  20  21  23  24  26 0
 3-21G
 ****
 27  28  34  35  38  39  40  41  42  43  44  45  46  47  48 0
 3-21G
 ****


