%nproc=1
%NoSave
%Mem=1900MB
#P OB98/GEN NMR

erre ene a

0 1
  C     -110.575    -267.159    -449.444
  O     -110.270    -266.867    -450.801
  P     -109.374    -267.931    -451.610
  C     -111.366    -268.482    -453.183
  O     -110.414    -268.974    -452.245
  C     -112.253    -269.615    -453.694
  O     -112.980    -270.208    -452.598
  C     -113.309    -269.189    -454.700
  O     -112.783    -269.081    -456.017
  C     -114.280    -270.356    -454.612
  O     -113.778    -271.470    -455.372
  C     -114.252    -270.680    -453.115
  N     -118.857    -271.435    -451.021
  C     -118.064    -272.238    -451.761
  N     -116.854    -271.960    -452.290
  C     -116.497    -270.690    -452.024
  C     -117.224    -269.745    -451.315
  C     -118.454    -270.158    -450.789
  N     -119.252    -269.352    -450.013
  N     -116.534    -268.551    -451.254
  C     -115.409    -268.775    -451.905
  N     -115.337    -270.058    -452.380
  O     -108.678    -268.775    -450.439
  O     -108.378    -267.337    -452.542
  H     -112.809    -271.485    -455.244
  H     -107.855    -269.189    -450.771
  H     -118.439    -273.236    -451.939
  H     -114.620    -268.048    -452.045
  H     -114.298    -271.760    -452.920
  H     -115.270    -270.115    -455.013
  H     -113.812    -268.267    -454.385
  H     -111.599    -270.387    -454.119
  H     -110.839    -268.035    -454.030
  H     -120.022    -269.776    -449.523
  H     -118.856    -268.478    -449.676
  H     -111.974    -267.708    -452.703
  P     -112.819    -267.626    -456.693
  C     -110.436    -267.617    -457.733
  O     -111.294    -267.132    -456.716
  O     -113.503    -266.716    -455.564
  O     -113.551    -267.576    -457.992
  H     -113.940    -265.948    -455.974
  H     -109.559    -266.964    -457.790
  H     -110.937    -267.614    -458.703
  H     -110.106    -268.630    -457.490
  H     -111.172    -266.371    -449.035
  H     -109.667    -267.245    -448.885
  H     -111.116    -268.081    -449.390

 3  4  5  6  7  8  9  10  11  12  22  25  29  30  31  32 0
 6-311+G(2d,p)
 ****
 33  36  37 0
 6-311+G(2d,p)
 ****
 1  2  13  14  15  16  17  18  19  20  21  23  24  26 0
 3-21G
 ****
 27  28  34  35  38  39  40  41  42  43  44  45  46  47  48 0
 3-21G
 ****


