%nproc=1
%NoSave
%Mem=1900MB
#P OB98/GEN NMR

erre ene a

0 1
  C     -426.958    -582.839     498.121
  O     -425.904    -583.208     498.990
  H     -427.423    -583.748     497.728
  H     -426.573    -582.253     497.281
  H     -427.715    -582.259     498.665
  P     -425.077    -582.005     499.661
  C     -424.142    -583.368     501.652
  O     -423.852    -582.690     500.442
  C     -422.916    -584.167     502.128
  O     -422.723    -585.341     501.310
  C     -421.610    -583.380     502.079
  O     -421.459    -582.564     503.234
  C     -420.580    -584.500     502.022
  O     -420.335    -585.055     503.329
  C     -421.285    -585.536     501.122
  N     -417.496    -585.607     497.787
  C     -417.491    -585.821     499.141
  N     -416.278    -586.036     499.722
  N     -418.563    -585.814     499.892
  C     -419.696    -585.554     499.194
  C     -419.829    -585.340     497.838
  C     -418.629    -585.374     497.020
  O     -418.573    -585.252     495.800
  N     -421.141    -585.128     497.501
  C     -421.793    -585.177     498.643
  N     -420.947    -585.415     499.707
  O     -426.030    -581.498     500.843
  O     -424.715    -580.886     498.732
  H     -419.716    -585.803     503.254
  H     -425.887    -580.548     500.980
  H     -416.633    -585.642     497.262
  H     -422.862    -585.045     498.763
  H     -421.057    -586.572     501.418
  H     -419.624    -584.163     501.641
  H     -415.411    -585.729     499.276
  H     -421.550    -582.773     501.154
  H     -416.257    -586.183     500.722
  H     -423.124    -584.509     503.148
  H     -424.968    -584.076     501.476
  H     -424.432    -582.649     502.417
  P     -420.361    -581.387     503.182
  C     -421.589    -579.909     504.931
  O     -420.412    -580.650     504.602
  O     -421.008    -580.316     502.178
  O     -418.991    -581.826     502.735
  H     -420.311    -579.695     501.858
  H     -421.478    -579.476     505.903
  H     -422.435    -580.564     504.927
  H     -421.735    -579.133     504.209

 6  7  8  9  10  11  12  13  14  15  26  29  33  34 0
 6-311+G(2d,p)
 ****
 36  38  39  40  41 0
 6-311+G(2d,p)
 ****
 1  2  3  4  5  16  17  18  19  20  21  22  23  24  25 0
 3-21G
 ****
 27  28  30  31  32  35  37  42  43  44  45  46  47 0
 3-21G
 ****
 48  49 0
 3-21G
 ****


