%nproc=1
%NoSave
%Mem=1900MB
#P OB98/GEN NMR

erre ene a

0 1
  C      -57.309    -122.429     -35.130
  O      -57.313    -121.467     -36.197
  P      -56.924    -119.952     -35.829
  C      -58.705    -118.763     -37.345
  O      -57.338    -119.080     -37.110
  C      -58.852    -118.041     -38.683
  O      -58.800    -118.985     -39.783
  C      -60.171    -117.298     -38.849
  O      -60.192    -116.100     -38.084
  C      -60.201    -117.093     -40.357
  O      -59.380    -115.972     -40.728
  C      -59.560    -118.407     -40.870
  N      -60.536    -119.350     -41.401
  C      -60.944    -119.127     -42.716
  O      -60.538    -118.182     -43.394
  N      -61.859    -120.016     -43.217
  C      -62.409    -121.065     -42.541
  O      -63.214    -121.841     -43.047
  C      -61.979    -121.222     -41.142
  C      -61.080    -120.371     -40.641
  O      -55.329    -120.023     -35.889
  O      -57.494    -119.506     -34.522
  H      -54.999    -120.625     -36.578
  H      -59.483    -115.864     -41.695
  H      -62.153    -119.881     -44.171
  H      -62.417    -122.028     -40.566
  H      -60.749    -120.468     -39.610
  H      -58.835    -118.187     -41.664
  H      -61.211    -116.901     -40.736
  H      -61.004    -117.946     -38.545
  H      -58.005    -117.341     -38.789
  H      -59.080    -118.117     -36.545
  H      -59.292    -119.689     -37.325
  P      -61.596    -115.695     -37.408
  C      -61.413    -113.320     -38.487
  O      -61.615    -114.094     -37.327
  O      -61.356    -116.165     -35.894
  O      -62.782    -116.323     -38.066
  H      -60.483    -115.915     -35.552
  H      -61.801    -112.310     -38.307
  H      -61.934    -113.745     -39.347
  H      -60.344    -113.252     -38.701
  H      -57.585    -123.389     -35.514
  H      -58.010    -122.131     -34.378
  H      -56.330    -122.484     -34.703

 3  4  5  6  7  8  9  10  11  12  13  24  28  29  30  31  32 0
 6-311+G(2d,p)
 ****
 33  34 0
 6-311+G(2d,p)
 ****
 1  2  14  15  16  17  18  19  20  21  22  23  25  26  27 0
 3-21G
 ****
 35  36  37  38  39  40  41  42  43  44  45 0
 3-21G
 ****


