%nproc=1
%NoSave
%Mem=1900MB
#P OB98/GEN NMR

erre ene a

0 1
  C     -149.352     308.033    -122.192
  O     -150.527     307.539    -122.856
  P     -151.910     307.459    -122.042
  C     -151.640     305.012    -121.154
  O     -151.744     306.395    -120.851
  C     -151.766     304.180    -119.873
  O     -150.647     304.431    -118.993
  C     -153.003     304.496    -119.042
  O     -154.174     303.917    -119.593
  C     -152.615     303.904    -117.691
  O     -152.862     302.488    -117.658
  C     -151.100     304.192    -117.643
  N     -150.765     305.306    -116.763
  C     -151.116     305.163    -115.424
  O     -151.726     304.190    -114.988
  N     -150.768     306.200    -114.600
  C     -150.179     307.370    -114.990
  O     -149.910     308.272    -114.208
  C     -149.908     307.499    -116.429
  C     -150.214     306.478    -117.234
  O     -152.853     306.662    -123.066
  O     -152.523     308.769    -121.669
  H     -152.152     302.068    -118.183
  H     -153.783     306.916    -122.916
  H     -150.984     306.104    -113.623
  H     -149.464     308.419    -116.783
  H     -150.019     306.559    -118.302
  H     -150.557     303.302    -117.300
  H     -153.174     304.350    -116.863
  H     -153.116     305.580    -118.938
  H     -151.751     303.117    -120.149
  H     -150.669     304.815    -121.613
  H     -152.428     304.744    -121.866
  P     -154.853     304.699    -120.822
  C     -156.421     306.180    -119.346
  O     -155.316     306.109    -120.221
  O     -156.205     303.857    -121.007
  O     -153.984     304.750    -122.033
  H     -156.543     303.519    -120.159
  H     -156.503     305.283    -118.725
  H     -157.339     306.301    -119.934
  H     -156.301     307.051    -118.696
  H     -148.526     308.020    -122.872
  H     -149.130     307.411    -121.350
  H     -149.525     309.035    -121.860

 3  4  5  6  7  8  9  10  11  12  13  23  28  29  30  31  32 0
 6-311+G(2d,p)
 ****
 33  34 0
 6-311+G(2d,p)
 ****
 1  2  14  15  16  17  18  19  20  21  22  24  25  26 0
 3-21G
 ****
 27  35  36  37  38  39  40  41  42  43  44  45 0
 3-21G
 ****


