%nproc=1
%NoSave
%Mem=1900MB
#P OB98/GEN NMR

erre ene a

0 1
  C      137.546    -364.037     356.522
  O      136.361    -363.278     356.782
  P      135.000    -364.056     357.142
  C      133.731    -363.775     354.912
  O      134.379    -364.678     355.799
  C      132.727    -364.506     354.004
  O      132.058    -363.552     353.138
  C      133.391    -365.570     353.115
  O      132.755    -366.848     353.186
  C      133.416    -364.917     351.742
  O      133.494    -365.855     350.679
  C      132.175    -364.013     351.779
  N      132.283    -362.891     350.826
  C      131.261    -362.772     349.897
  O      130.337    -363.575     349.800
  N      131.358    -361.703     349.034
  C      132.395    -360.826     348.966
  O      132.467    -359.917     348.143
  C      133.494    -361.049     349.935
  C      133.378    -362.057     350.807
  O      134.032    -363.304     357.997
  O      135.529    -365.364     357.912
  H      132.657    -366.375     350.664
  H      134.917    -365.552     358.646
  H      130.608    -361.593     348.367
  H      134.340    -360.387     349.890
  H      134.176    -362.255     351.518
  H      131.273    -364.571     351.520
  H      134.305    -364.287     351.671
  H      134.424    -365.770     353.437
  H      131.984    -364.974     354.656
  H      134.483    -363.280     354.288
  H      133.247    -362.975     355.494
  P      133.406    -368.142     353.863
  C      134.731    -369.141     351.858
  O      134.783    -368.469     353.097
  O      132.494    -369.320     354.024
  O      133.889    -367.616     355.295
  H      133.704    -368.292     355.968
  H      135.704    -369.600     351.670
  H      134.516    -368.416     351.065
  H      133.959    -369.916     351.853
  H      138.354    -363.372     356.301
  H      137.379    -364.685     355.687
  H      137.791    -364.622     357.384

 3  4  5  6  7  8  9  10  11  12  13  23  28  29  30  31  32 0
 6-311+G(2d,p)
 ****
 33  34 0
 6-311+G(2d,p)
 ****
 1  2  14  15  16  17  18  19  20  21  22  24  25  26  27 0
 3-21G
 ****
 35  36  37  38  39  40  41  42  43  44  45 0
 3-21G
 ****


