%nproc=1
%NoSave
%Mem=1900MB
#P OB98/GEN NMR

erre ene a

0 1
  C       98.388    -300.205      36.159
  O       99.176    -299.649      37.194
  H       97.450    -300.566      36.589
  H       98.917    -301.049      35.709
  H       98.160    -299.455      35.398
  P      100.440    -298.767      36.745
  C       99.166    -296.516      36.933
  O       99.850    -297.427      36.088
  C       99.765    -295.120      36.804
  O       98.941    -294.152      37.488
  C      101.166    -294.980      37.387
  O      102.163    -295.414      36.470
  C      101.238    -293.476      37.596
  O      101.480    -292.823      36.334
  C       99.818    -293.158      38.089
  N      101.428    -291.297      42.527
  C      101.889    -291.056      41.246
  N      102.932    -290.206      41.130
  N      101.379    -291.605      40.174
  C      100.356    -292.451      40.439
  C       99.811    -292.776      41.665
  C      100.375    -292.149      42.839
  O       99.995    -292.320      43.998
  N       98.786    -293.672      41.538
  C       98.724    -293.908      40.245
  N       99.653    -293.195      39.533
  O      101.014    -299.586      35.492
  O      101.484    -298.575      37.793
  H      102.223    -293.288      35.907
  H      101.801    -300.089      35.779
  H      101.860    -290.856      43.319
  H       98.015    -294.581      39.772
  H       99.477    -292.171      37.758
  H      102.047    -293.181      38.264
  H      103.386    -289.766      41.918
  H      101.256    -295.489      38.354
  H      103.284    -290.014      40.203
  H       99.763    -294.851      35.738
  H       99.253    -296.855      37.972
  H       98.106    -296.494      36.650
  P      103.691    -295.423      36.957
  C      104.182    -297.916      37.487
  O      103.844    -296.633      38.002
  O      103.769    -294.118      37.880
  O      104.709    -295.381      35.865
  H      104.331    -293.438      37.451
  H      104.249    -298.617      38.292
  H      105.124    -297.861      36.983
  H      103.427    -298.234      36.799

 6  7  8  9  10  11  12  13  14  15  26  29  33  34 0
 6-311+G(2d,p)
 ****
 36  38  39  40  41 0
 6-311+G(2d,p)
 ****
 1  2  3  4  5  16  17  18  19  20  21  22  23  24  25 0
 3-21G
 ****
 27  28  30  31  32  35  37  42  43  44  45  46  47 0
 3-21G
 ****
 48  49 0
 3-21G
 ****


