%nproc=1
%NoSave
%Mem=1900MB
#P OB98/GEN NMR

erre ene a

0 1
  C      -25.311      63.381    -471.427
  O      -24.508      62.893    -472.482
  H      -24.707      63.406    -470.512
  H      -26.170      62.722    -471.265
  H      -25.654      64.396    -471.650
  P      -25.242      62.676    -473.894
  C      -27.380      61.310    -474.509
  O      -26.332      61.532    -473.580
  C      -28.585      60.705    -473.797
  O      -29.220      61.689    -472.949
  C      -29.686      60.204    -474.730
  O      -29.386      58.949    -475.322
  C      -30.842      60.099    -473.734
  O      -30.658      58.944    -472.908
  C      -30.656      61.411    -472.935
  N      -31.400      62.537    -473.497
  C      -32.707      62.727    -473.016
  O      -33.176      61.968    -472.162
  N      -33.454      63.748    -473.539
  C      -32.955      64.536    -474.438
  N      -33.755      65.530    -474.920
  C      -31.592      64.381    -474.973
  C      -30.881      63.373    -474.464
  O      -24.147      61.890    -474.759
  O      -25.786      63.901    -474.549
  H      -30.512      58.188    -473.503
  H      -24.553      61.564    -475.611
  H      -31.221      65.044    -475.744
  H      -29.862      63.194    -474.810
  H      -30.950      61.273    -471.890
  H      -31.809      59.997    -474.217
  H      -29.938      60.950    -475.490
  H      -28.223      59.901    -473.140
  H      -34.708      65.572    -474.583
  H      -27.013      60.623    -475.285
  H      -33.511      66.089    -475.728
  H      -27.668      62.252    -474.986
  P      -30.131      58.598    -476.712
  C      -32.592      58.637    -477.540
  O      -31.704      58.735    -476.441
  O      -29.913      57.021    -476.845
  O      -29.611      59.348    -477.905
  H      -29.815      56.756    -477.782
  H      -33.599      58.749    -477.196
  H      -32.478      57.681    -478.006
  H      -32.370      59.408    -478.248

 6  7  8  9  10  11  12  13  14  15  16  26  30  31  32  33  35 0
 6-311+G(2d,p)
 ****
 37  38 0
 6-311+G(2d,p)
 ****
 1  2  3  4  5  17  18  19  20  21  22  23  24  25 0
 3-21G
 ****
 27  28  29  34  36  39  40  41  42  43  44  45  46 0
 3-21G
 ****


