%nproc=1
%NoSave
%Mem=1900MB
#P OB98/GEN NMR

erre ene a

0 1
  C     -122.918     103.412      18.371
  O     -124.063     104.210      18.590
  H     -122.045     103.934      18.769
  H     -122.770     103.252      17.300
  H     -123.012     102.448      18.880
  P     -125.510     103.590      18.282
  C     -125.451     102.204      20.456
  O     -125.580     102.179      19.040
  C     -126.708     101.627      21.103
  O     -126.882     100.247      20.717
  C     -126.679     101.631      22.627
  O     -126.911     102.932      23.137
  C     -127.773     100.617      22.934
  O     -129.071     101.217      22.827
  C     -127.550      99.577      21.810
  N     -126.788      98.407      22.249
  C     -127.519      97.371      22.819
  O     -128.738      97.424      22.993
  N     -126.797      96.270      23.204
  C     -125.439      96.147      23.149
  O     -124.834      95.156      23.557
  C     -124.714      97.286      22.569
  C     -125.411      98.347      22.153
  O     -125.907     103.550      16.843
  O     -126.502     104.508      19.142
  H     -129.719     100.487      22.841
  H     -126.927     105.167      18.560
  H     -127.309      95.513      23.631
  H     -123.634      97.225      22.515
  H     -124.892      99.199      21.727
  H     -128.514      99.228      21.421
  H     -127.696     100.207      23.941
  H     -125.721     101.236      22.989
  H     -127.573     102.195      20.730
  H     -125.316     103.242      20.779
  H     -124.567     101.623      20.741
  P     -126.187     103.429      24.473
  C     -124.360     104.628      23.134
  O     -124.632     103.648      24.128
  O     -126.446     102.596      25.685
  O     -126.727     104.923      24.672
  H     -127.375     104.946      25.406
  H     -123.303     104.696      22.980
  H     -124.735     105.577      23.457
  H     -124.837     104.349      22.218

 6  7  8  9  10  11  12  13  14  15  16  26  31  32  33  34  35 0
 6-311+G(2d,p)
 ****
 36  37 0
 6-311+G(2d,p)
 ****
 1  2  3  4  5  17  18  19  20  21  22  23  24  25 0
 3-21G
 ****
 27  28  29  30  38  39  40  41  42  43  44  45 0
 3-21G
 ****


