%nproc=1
%NoSave
%Mem=1900MB
#P OB98/GEN NMR

erre ene a

0 1
  C      -15.811    -255.802     -28.938
  O      -16.427    -257.012     -28.547
  H      -15.257    -255.400     -28.087
  H      -16.560    -255.067     -29.247
  H      -15.109    -255.984     -29.756
  P      -17.435    -257.732     -29.564
  C      -15.754    -259.624     -30.032
  O      -17.052    -259.290     -29.561
  C      -15.514    -261.132     -29.939
  O      -15.032    -261.441     -28.602
  C      -16.774    -261.970     -30.196
  O      -16.392    -263.145     -30.914
  C      -17.229    -262.325     -28.797
  O      -18.028    -263.491     -28.789
  C      -15.901    -262.440     -28.039
  N      -16.096    -262.250     -26.603
  C      -16.452    -263.387     -25.865
  O      -16.577    -264.476     -26.424
  N      -16.727    -263.248     -24.530
  C      -16.704    -262.072     -23.984
  N      -17.023    -262.000     -22.663
  C      -16.356    -260.843     -24.729
  C      -16.068    -261.004     -26.017
  O      -17.551    -257.120     -30.921
  O      -18.837    -257.701     -28.790
  H      -18.287    -263.703     -27.867
  H      -19.330    -256.892     -29.020
  H      -16.360    -259.887     -24.228
  H      -15.813    -260.156     -26.647
  H      -15.444    -263.423     -28.206
  H      -17.829    -261.502     -28.385
  H      -17.544    -261.426     -30.754
  H      -14.712    -261.401     -30.637
  H      -17.277    -262.866     -22.199
  H      -15.023    -259.099     -29.404
  H      -17.080    -261.142     -22.142
  H      -15.635    -259.288     -31.068
  P      -16.693    -263.281     -32.484
  C      -14.892    -264.955     -33.199
  O      -16.282    -264.758     -32.972
  O      -16.138    -262.176     -33.325
  O      -18.297    -263.302     -32.568
  H      -18.577    -262.912     -33.420
  H      -14.722    -265.962     -33.518
  H      -14.353    -264.772     -32.293
  H      -14.555    -264.279     -33.957

 6  7  8  9  10  11  12  13  14  15  16  26  30  31  32  33  35 0
 6-311+G(2d,p)
 ****
 37  38 0
 6-311+G(2d,p)
 ****
 1  2  3  4  5  17  18  19  20  21  22  23  24  25 0
 3-21G
 ****
 27  28  29  34  36  39  40  41  42  43  44  45  46 0
 3-21G
 ****


