%nproc=1
%NoSave
%Mem=1900MB
#P OB98/GEN NMR

erre ene a

0 1
  C      382.517     -76.025     -46.418
  O      383.778     -75.969     -45.746
  P      383.771     -75.361     -44.254
  C      386.132     -74.262     -44.211
  O      385.293     -75.314     -43.743
  C      387.564     -74.453     -43.720
  O      387.601     -74.674     -42.297
  C      388.279     -75.659     -44.322
  O      388.764     -75.383     -45.627
  C      389.428     -75.842     -43.344
  O      390.503     -74.942     -43.676
  C      388.787     -75.447     -41.997
  N      390.195     -78.591     -38.281
  C      390.875     -77.531     -38.850
  N      392.092     -77.248     -38.328
  N      390.403     -76.807     -39.835
  C      389.161     -77.189     -40.233
  C      388.391     -78.214     -39.750
  C      388.936     -79.029     -38.680
  O      388.390     -79.998     -38.165
  N      387.178     -78.284     -40.398
  C      387.215     -77.275     -41.246
  N      388.400     -76.586     -41.194
  O      383.129     -76.550     -43.390
  O      382.997     -74.090     -44.119
  H      390.741     -75.122     -44.607
  H      382.691     -76.184     -42.596
  H      390.607     -79.121     -37.530
  H      386.406     -77.002     -41.917
  H      389.451     -74.809     -41.404
  H      389.843     -76.853     -43.367
  H      392.481     -77.721     -37.526
  H      387.628     -76.547     -44.303
  H      392.587     -76.452     -38.711
  H      388.127     -73.536     -43.945
  H      385.752     -73.302     -43.856
  H      386.090     -74.235     -45.306
  P      388.280     -76.352     -46.810
  C      390.203     -76.002     -48.519
  O      388.863     -75.711     -48.155
  O      386.706     -76.070     -46.895
  O      388.575     -77.805     -46.589
  H      386.234     -76.859     -47.225
  H      390.438     -77.057     -48.366
  H      390.879     -75.381     -47.920
  H      390.343     -75.758     -49.581
  H      382.651     -76.445     -47.393
  H      382.116     -75.037     -46.507
  H      381.841     -76.635     -45.857

 3  4  5  6  7  8  9  10  11  12  23  26  30  31  33  0
 6-311+G(2d,p)
 ****
 35  36  37  38 0
 6-311+G(2d,p)
 ****
 1  2  13  14  15  16  17  18  19  20  21  22  24  25  27  28  29 0
 3-21G
 ****
 32  34  39  40  41  42  43  44  45  46  47  48  49 0
 3-21G
 ****


