%nproc=1
%NoSave
%Mem=1900MB
#P OB98/GEN NMR

erre ene a

0 1
  C      150.291    -390.853      24.164
  O      149.098    -390.582      24.872
  H      150.045    -391.429      23.268
  H      150.968    -391.444      24.789
  H      150.778    -389.921      23.864
  P      149.215    -389.590      26.132
  C      146.995    -388.201      26.322
  O      147.715    -389.375      26.654
  C      145.499    -388.396      26.577
  O      144.952    -389.217      25.517
  C      145.186    -389.081      27.909
  O      143.977    -388.524      28.429
  C      144.942    -390.527      27.509
  O      144.146    -391.222      28.465
  C      144.296    -390.351      26.126
  N      144.414    -391.551      25.299
  C      143.220    -392.138      24.874
  O      142.136    -391.656      25.207
  N      143.273    -393.282      24.119
  C      144.420    -393.829      23.862
  N      144.405    -394.977      23.132
  C      145.704    -393.269      24.329
  C      145.628    -392.135      25.025
  O      149.574    -388.201      25.422
  O      150.196    -390.024      27.169
  H      144.640    -391.261      29.314
  H      149.036    -388.019      24.633
  H      146.632    -393.770      24.100
  H      146.520    -391.651      25.399
  H      143.231    -390.104      26.227
  H      145.895    -391.057      27.419
  H      145.991    -388.973      28.641
  H      145.004    -387.421      26.510
  H      143.504    -395.339      22.853
  H      147.153    -387.942      25.271
  H      145.230    -395.517      22.921
  H      147.382    -387.382      26.937
  P      144.032    -387.607      29.738
  C      142.044    -385.952      29.717
  O      142.540    -387.206      30.168
  O      145.006    -386.480      29.700
  O      144.444    -388.656      30.886
  H      145.090    -388.216      31.473
  H      141.045    -385.814      30.074
  H      142.046    -385.931      28.647
  H      142.668    -385.167      30.090

 6  7  8  9  10  11  12  13  14  15  16  26  30  31  32  33  35 0
 6-311+G(2d,p)
 ****
 37  38 0
 6-311+G(2d,p)
 ****
 1  2  3  4  5  17  18  19  20  21  22  23  24  25 0
 3-21G
 ****
 27  28  29  34  36  39  40  41  42  43  44  45  46 0
 3-21G
 ****


