%nproc=1
%NoSave
%Mem=1900MB
#P OB98/GEN NMR

erre ene a

0 1
  C     -265.734      29.310    -365.188
  O     -265.335      29.695    -363.886
  H     -265.136      28.449    -365.497
  H     -265.562      30.129    -365.892
  H     -266.790      29.027    -365.189
  P     -266.116      30.936    -363.236
  C     -263.903      32.189    -362.752
  O     -265.062      31.570    -362.207
  C     -262.744      32.115    -361.761
  O     -263.017      32.921    -360.601
  C     -262.456      30.715    -361.233
  O     -261.688      29.970    -362.164
  C     -261.660      31.041    -359.979
  O     -260.298      31.349    -360.332
  C     -262.365      32.309    -359.457
  N     -263.131      31.017    -354.549
  C     -262.024      30.986    -355.321
  N     -261.904      31.305    -356.630
  C     -263.085      31.686    -357.137
  C     -264.297      31.765    -356.470
  C     -264.293      31.420    -355.110
  N     -265.424      31.461    -354.319
  N     -265.297      32.197    -357.320
  C     -264.687      32.424    -358.464
  N     -263.354      32.095    -358.417
  O     -267.472      30.636    -362.697
  O     -266.082      31.984    -364.447
  H     -259.937      30.579    -360.809
  H     -265.227      31.942    -364.910
  H     -261.112      30.667    -354.825
  H     -265.155      32.840    -359.348
  H     -261.648      33.037    -359.058
  H     -261.627      30.205    -359.279
  H     -263.377      30.196    -360.948
  H     -261.857      32.538    -362.249
  H     -264.110      33.232    -363.006
  H     -265.370      31.036    -353.407
  H     -266.310      31.642    -354.768
  H     -263.647      31.652    -363.671
  P     -262.389      29.246    -363.408
  C     -261.080      27.051    -363.096
  O     -261.339      28.158    -363.954
  O     -262.929      30.161    -364.452
  O     -263.536      28.344    -362.754
  H     -264.333      28.347    -363.318
  H     -260.371      26.398    -363.561
  H     -261.991      26.519    -362.916
  H     -260.684      27.405    -362.167

 6  7  8  9  10  11  12  13  14  15  25  28  32  33  34  35 0
 6-311+G(2d,p)
 ****
 36  39  40 0
 6-311+G(2d,p)
 ****
 1  2  3  4  5  16  17  18  19  20  21  22  23  24 0
 3-21G
 ****
 26  27  29  30  31  37  38  41  42  43  44  45  46  47 0
 3-21G
 ****
 48 0
 3-21G
 ****


