%nproc=1
%NoSave
%Mem=1900MB
#P OB98/GEN NMR

erre ene a

0 1
  C      818.281     136.926     359.809
  O      819.660     137.172     359.613
  H      818.158     135.915     360.215
  H      817.749     136.989     358.857
  H      817.859     137.644     360.522
  P      820.074     138.659     359.190
  C      820.569     137.651     356.818
  O      820.041     138.722     357.588
  C      819.723     137.432     355.569
  O      818.378     137.043     355.909
  C      819.531     138.692     354.735
  O      820.701     139.078     354.048
  C      818.404     138.234     353.809
  O      818.904     137.410     352.743
  C      817.529     137.399     354.783
  N      816.333     138.116     355.209
  C      815.240     138.038     354.344
  O      815.314     137.385     353.299
  N      814.090     138.719     354.669
  C      814.033     139.401     355.771
  N      812.874     140.063     356.033
  C      815.160     139.491     356.731
  C      816.266     138.837     356.382
  O      821.639     138.689     359.514
  O      819.287     139.750     359.842
  H      818.123     137.062     352.277
  H      822.139     137.965     359.096
  H      815.067     140.061     357.635
  H      817.138     138.849     357.025
  H      817.220     136.459     354.305
  H      817.892     139.078     353.339
  H      819.140     139.509     355.350
  H      820.174     136.625     354.977
  H      812.133     140.002     355.342
  H      820.622     136.736     357.407
  H      812.730     140.651     356.836
  H      821.591     137.916     356.538
  P      821.321     140.545     354.268
  C      820.947     140.786     351.727
  O      820.856     141.421     353.005
  O      822.791     140.572     354.540
  O      820.426     141.148     355.449
  H      819.475     141.209     355.248
  H      820.612     141.462     350.968
  H      820.333     139.910     351.720
  H      821.963     140.511     351.537

 6  7  8  9  10  11  12  13  14  15  16  26  30  31  32  33  35 0
 6-311+G(2d,p)
 ****
 37  38 0
 6-311+G(2d,p)
 ****
 1  2  3  4  5  17  18  19  20  21  22  23  24  25 0
 3-21G
 ****
 27  28  29  34  36  39  40  41  42  43  44  45  46 0
 3-21G
 ****


