%nproc=1
%NoSave
%Mem=1900MB
#P OB98/GEN NMR

erre ene a

0 1
  C      657.961    -680.715     854.083
  O      659.015    -680.462     854.986
  H      657.283    -679.857     854.071
  H      657.397    -681.597     854.403
  H      658.341    -680.870     853.068
  P      660.246    -681.495     854.979
  C      659.950    -681.949     857.519
  O      660.006    -682.497     856.214
  C      660.353    -683.011     858.553
  O      659.420    -684.121     858.463
  C      661.768    -683.588     858.330
  O      662.342    -683.841     859.609
  C      661.492    -684.905     857.627
  O      662.541    -685.859     857.771
  C      660.188    -685.336     858.309
  N      659.450    -686.337     857.547
  C      659.880    -687.645     857.626
  O      660.807    -688.046     858.363
  N      659.235    -688.544     856.824
  C      658.229    -688.253     855.938
  O      657.698    -689.087     855.221
  C      657.808    -686.840     855.883
  C      658.440    -685.957     856.684
  O      661.469    -680.583     855.468
  O      660.520    -682.167     853.673
  H      661.911    -680.162     854.706
  H      662.625    -686.054     858.727
  H      659.542    -689.499     856.874
  H      657.036    -686.564     855.196
  H      658.167    -684.899     856.651
  H      660.396    -685.727     859.320
  H      661.328    -684.732     856.557
  H      662.422    -682.933     857.743
  H      660.257    -682.581     859.545
  H      658.910    -681.618     857.732
  H      660.612    -681.077     857.583
  P      663.532    -682.866     860.081
  C      665.779    -684.197     860.380
  O      664.874    -683.500     859.505
  O      663.577    -683.183     861.669
  O      663.274    -681.431     859.746
  H      663.391    -684.119     861.854
  H      666.618    -684.550     859.818
  H      665.274    -685.028     860.827
  H      666.118    -683.531     861.146

 6  7  8  9  10  11  12  13  14  15  16  27  31  32  33  34  35 0
 6-311+G(2d,p)
 ****
 36  37 0
 6-311+G(2d,p)
 ****
 1  2  3  4  5  17  18  19  20  21  22  23  24  25 0
 3-21G
 ****
 26  28  29  30  38  39  40  41  42  43  44  45 0
 3-21G
 ****


