%nproc=1
%NoSave
%Mem=1900MB
#P OB98/GEN NMR

erre ene a

0 1
  C     -285.698    -346.519     902.847
  O     -286.875    -347.105     903.429
  P     -287.244    -346.959     904.978
  C     -289.436    -346.893     906.350
  O     -288.762    -347.424     905.206
  C     -290.901    -347.337     906.405
  O     -291.666    -346.704     905.358
  C     -291.118    -348.836     906.216
  O     -290.781    -349.553     907.395
  C     -292.595    -348.871     905.849
  O     -293.421    -348.813     907.031
  C     -292.745    -347.588     905.019
  N     -292.790    -347.855     903.577
  C     -293.981    -348.361     903.062
  O     -294.933    -348.624     903.826
  N     -294.081    -348.594     901.716
  C     -293.040    -348.400     900.958
  N     -293.188    -348.630     899.618
  C     -291.731    -347.952     901.472
  C     -291.676    -347.693     902.772
  O     -286.930    -345.612     905.557
  O     -286.391    -348.100     905.712
  H     -293.422    -349.723     907.411
  H     -286.169    -347.799     906.619
  H     -290.889    -347.841     900.807
  H     -290.754    -347.360     903.232
  H     -293.668    -347.057     905.294
  H     -292.878    -349.783     905.307
  H     -290.521    -349.199     905.364
  H     -291.314    -347.014     907.373
  H     -294.107    -348.930     899.300
  H     -289.398    -345.793     906.284
  H     -292.445    -348.516     898.939
  H     -288.905    -347.214     907.252
  P     -289.341    -350.259     907.499
  C     -287.946    -350.462     909.649
  O     -289.169    -350.768     909.015
  O     -288.192    -349.480     906.965
  O     -289.528    -351.635     906.701
  H     -288.675    -351.880     906.285
  H     -288.083    -350.478     910.738
  H     -287.579    -349.470     909.350
  H     -287.187    -351.209     909.375
  H     -285.664    -346.750     901.803
  H     -284.828    -346.914     903.328
  H     -285.727    -345.457     902.977

 3  4  5  6  7  8  9  10  11  12  13  23  27  28  29  30  32 0
 6-311+G(2d,p)
 ****
 34  35 0
 6-311+G(2d,p)
 ****
 1  2  14  15  16  17  18  19  20  21  22  24  25  26 0
 3-21G
 ****
 31  33  36  37  38  39  40  41  42  43  44  45  46 0
 3-21G
 ****


