%nproc=1
%NoSave
%Mem=1900MB
#P OB98/GEN NMR

erre ene a

0 1
  C     1023.701     193.796     575.117
  O     1025.018     193.968     574.580
  P     1025.166     194.816     573.226
  C     1023.899     193.083     571.758
  O     1025.139     193.738     572.031
  C     1024.115     191.942     570.760
  O     1024.554     192.473     569.496
  C     1025.206     190.936     571.189
  O     1024.720     189.988     572.125
  C     1025.520     190.268     569.838
  O     1024.543     189.253     569.577
  C     1025.356     191.441     568.844
  N     1028.295     192.740     564.934
  C     1027.056     192.152     564.931
  N     1026.489     191.882     563.735
  N     1026.412     191.842     566.040
  C     1027.073     192.192     567.165
  C     1028.315     192.756     567.283
  C     1029.037     193.059     566.052
  O     1030.172     193.510     566.001
  N     1028.634     192.988     568.593
  C     1027.582     192.567     569.286
  N     1026.615     192.046     568.443
  O     1026.689     195.292     573.277
  O     1024.228     195.968     573.082
  H     1024.699     188.545     570.239
  H     1026.801     196.118     572.731
  H     1028.739     192.977     564.053
  H     1027.472     192.627     570.349
  H     1024.822     191.122     567.949
  H     1026.495     189.802     569.828
  H     1026.887     192.219     562.870
  H     1026.110     191.457     571.543
  H     1025.554     191.495     563.733
  H     1023.160     191.427     570.622
  H     1023.204     193.805     571.309
  H     1023.478     192.711     572.679
  P     1025.549     189.901     573.518
  C     1027.509     188.768     572.242
  O     1026.561     188.684     573.295
  O     1024.447     189.320     574.541
  O     1026.136     191.193     573.978
  H     1024.672     189.573     575.434
  H     1027.882     189.795     572.114
  H     1027.061     188.414     571.318
  H     1028.361     188.129     572.488
  H     1023.755     193.215     576.014
  H     1023.087     193.291     574.401
  H     1023.278     194.754     575.338

 3  4  5  6  7  8  9  10  11  12  23  26  30  31  33  0
 6-311+G(2d,p)
 ****
 35  36  37  38 0
 6-311+G(2d,p)
 ****
 1  2  13  14  15  16  17  18  19  20  21  22  24  25  27  28  29 0
 3-21G
 ****
 32  34  39  40  41  42  43  44  45  46  47  48  49 0
 3-21G
 ****


