%nproc=1
%NoSave
%Mem=1900MB
#P OB98/GEN NMR

erre ene a

0 1
  C      115.115     340.072     -36.420
  O      113.974     340.836     -36.757
  H      115.757     339.939     -37.295
  H      115.674     340.601     -35.644
  H      114.810     339.095     -36.032
  P      113.072     340.276     -37.960
  C      110.531     340.013     -38.396
  O      111.544     340.468     -37.511
  C      109.213     340.715     -38.094
  O      108.747     340.359     -36.776
  C      109.286     342.239     -38.095
  O      109.274     342.770     -39.413
  C      108.011     342.581     -37.341
  O      106.884     342.503     -38.232
  C      107.930     341.458     -36.296
  N      107.248     344.650     -32.330
  C      106.594     344.522     -33.507
  N      106.838     343.661     -34.516
  C      107.871     342.854     -34.219
  C      108.630     342.869     -33.063
  C      108.291     343.821     -32.088
  N      108.974     343.954     -30.900
  N      109.596     341.886     -33.104
  C      109.426     341.289     -34.266
  N      108.398     341.844     -34.979
  O      113.283     338.688     -37.877
  O      113.415     340.802     -39.315
  H      106.874     341.597     -38.592
  H      113.282     338.322     -38.782
  H      105.760     345.202     -33.658
  H      110.016     340.456     -34.624
  H      106.909     341.073     -36.195
  H      108.021     343.586     -36.912
  H      110.150     342.595     -37.527
  H      108.469     340.361     -38.819
  H      110.399     338.934     -38.272
  H      108.567     344.511     -30.167
  H      109.749     343.323     -30.723
  H      110.846     340.217     -39.427
  P      109.718     344.302     -39.596
  C      110.405     345.685     -41.682
  O      110.323     344.400     -41.079
  O      111.011     344.418     -38.663
  O      108.680     345.311     -39.239
  H      111.133     345.344     -38.379
  H      110.825     345.593     -42.662
  H      111.026     346.320     -41.085
  H      109.425     346.109     -41.753

 6  7  8  9  10  11  12  13  14  15  25  28  32  33  34  35 0
 6-311+G(2d,p)
 ****
 36  39  40 0
 6-311+G(2d,p)
 ****
 1  2  3  4  5  16  17  18  19  20  21  22  23  24 0
 3-21G
 ****
 26  27  29  30  31  37  38  41  42  43  44  45  46  47  48 0
 3-21G
 ****


