%nproc=1
%NoSave
%Mem=1900MB
#P OB98/GEN NMR

erre ene a

0 1
  C     -414.544    -147.490    -318.392
  O     -414.856    -146.460    -317.476
  H     -415.436    -148.076    -318.624
  H     -414.166    -147.039    -319.311
  H     -413.771    -148.140    -317.972
  P     -415.531    -146.916    -316.094
  C     -418.072    -146.429    -315.957
  O     -417.053    -147.297    -316.434
  C     -418.206    -145.221    -316.877
  O     -418.180    -145.639    -318.258
  C     -419.508    -144.443    -316.724
  O     -419.482    -143.585    -315.591
  C     -419.521    -143.655    -318.024
  O     -418.668    -142.502    -317.904
  C     -418.917    -144.654    -319.022
  N     -420.854    -145.211    -323.748
  C     -419.854    -144.434    -323.270
  N     -419.403    -144.330    -322.004
  C     -420.081    -145.149    -321.181
  C     -421.124    -145.996    -321.529
  C     -421.517    -146.007    -322.878
  N     -422.549    -146.789    -323.351
  N     -421.569    -146.696    -320.424
  C     -420.813    -146.277    -319.432
  N     -419.902    -145.337    -319.839
  O     -415.666    -145.545    -315.273
  O     -414.769    -147.941    -315.317
  H     -418.998    -141.983    -317.150
  H     -415.519    -145.727    -314.327
  H     -419.346    -143.817    -324.005
  H     -420.882    -146.632    -318.408
  H     -418.196    -144.165    -319.693
  H     -420.516    -143.294    -318.303
  H     -420.374    -145.114    -316.701
  H     -417.343    -144.569    -316.707
  H     -417.819    -146.085    -314.948
  H     -422.652    -146.898    -324.349
  H     -423.034    -147.385    -322.691
  H     -419.018    -146.985    -315.917
  P     -420.881    -142.954    -315.108
  C     -421.118    -140.411    -315.570
  O     -421.169    -141.733    -316.102
  O     -420.492    -142.228    -313.735
  O     -421.989    -143.937    -314.928
  H     -421.281    -142.161    -313.159
  H     -421.330    -139.706    -316.346
  H     -420.142    -140.223    -315.174
  H     -421.844    -140.312    -314.790

 6  7  8  9  10  11  12  13  14  15  25  28  32  33  34  35 0
 6-311+G(2d,p)
 ****
 36  39  40 0
 6-311+G(2d,p)
 ****
 1  2  3  4  5  16  17  18  19  20  21  22  23  24 0
 3-21G
 ****
 26  27  29  30  31  37  38  41  42  43  44  45  46  47  48 0
 3-21G
 ****


