%nproc=1
%NoSave
%Mem=1900MB
#P OB98/GEN NMR

erre ene a

0 1
  C      194.566    -133.532    -383.194
  O      195.896    -133.082    -383.356
  P      197.121    -134.099    -383.186
  C      198.504    -132.503    -381.720
  O      198.454    -133.245    -382.934
  C      199.801    -131.703    -381.634
  O      200.948    -132.583    -381.569
  C      200.059    -130.813    -382.839
  O      199.214    -129.678    -382.855
  C      201.541    -130.509    -382.663
  O      201.739    -129.461    -381.702
  C      202.071    -131.850    -382.109
  N      202.773    -132.628    -383.119
  C      204.170    -132.522    -383.113
  O      204.734    -131.744    -382.344
  N      204.888    -133.297    -383.991
  C      204.269    -134.014    -384.874
  N      205.028    -134.807    -385.677
  C      202.795    -134.026    -385.019
  C      202.119    -133.333    -384.103
  O      197.235    -135.141    -384.248
  O      196.863    -134.777    -381.755
  H      196.924    -135.747    -381.852
  H      202.652    -129.563    -381.363
  H      202.331    -134.586    -385.816
  H      201.035    -133.304    -384.116
  H      202.745    -131.673    -381.266
  H      202.015    -130.185    -383.597
  H      199.913    -131.388    -383.762
  H      199.771    -131.105    -380.713
  H      206.032    -134.785    -385.538
  H      198.446    -133.204    -380.880
  H      204.651    -135.619    -386.156
  H      197.634    -131.837    -381.669
  P      198.042    -129.660    -383.952
  C      198.301    -127.083    -383.933
  O      197.414    -128.187    -383.961
  O      196.897    -130.557    -383.282
  O      198.435    -130.194    -385.289
  H      196.440    -131.076    -383.972
  H      197.764    -126.199    -384.289
  H      199.172    -127.253    -384.572
  H      198.626    -126.904    -382.905
  H      193.892    -132.715    -383.345
  H      194.439    -133.921    -382.205
  H      194.360    -134.301    -383.909

 3  4  5  6  7  8  9  10  11  12  13  24  27  28  29  30  32 0
 6-311+G(2d,p)
 ****
 34  35 0
 6-311+G(2d,p)
 ****
 1  2  14  15  16  17  18  19  20  21  22  23  25  26 0
 3-21G
 ****
 31  33  36  37  38  39  40  41  42  43  44  45  46 0
 3-21G
 ****


