%nproc=1
%NoSave
%Mem=1900MB
#P OB98/GEN NMR

erre ene a

0 1
  C      435.933     487.224     -87.994
  O      437.329     487.477     -87.808
  P      437.954     487.433     -86.330
  C      439.937     488.925     -87.095
  O      439.535     487.728     -86.420
  C      441.454     489.132     -86.918
  O      441.806     489.289     -85.523
  C      442.274     487.942     -87.399
  O      442.311     487.716     -88.797
  C      443.600     488.175     -86.706
  O      444.426     489.087     -87.415
  C      443.145     488.774     -85.357
  N      443.213     487.818     -84.248
  C      444.460     487.652     -83.656
  O      445.472     488.225     -84.045
  N      444.512     486.757     -82.612
  C      443.468     486.017     -82.145
  O      443.572     485.225     -81.213
  C      442.176     486.227     -82.815
  C      442.107     487.100     -83.829
  O      437.576     486.247     -85.509
  O      437.388     488.785     -85.671
  H      443.925     489.923     -87.523
  H      437.144     488.585     -84.747
  H      445.408     486.634     -82.167
  H      441.327     485.645     -82.470
  H      441.174     487.268     -84.346
  H      443.775     489.632     -85.087
  H      444.175     487.237     -86.615
  H      441.838     487.030     -86.963
  H      441.736     490.056     -87.446
  H      439.390     489.775     -86.697
  H      439.670     488.840     -88.156
  P      441.392     486.615     -89.528
  C      443.223     485.465     -90.978
  O      442.059     486.274     -90.948
  O      439.916     486.811     -89.487
  O      441.759     485.298     -88.674
  H      440.968     484.723     -88.642
  H      443.541     485.350     -92.022
  H      443.002     484.483     -90.560
  H      444.029     485.944     -90.415
  H      435.693     487.294     -89.034
  H      435.364     487.946     -87.447
  H      435.698     486.242     -87.639

 3  4  5  6  7  8  9  10  11  12  13  23  28  29  30  31  32 0
 6-311+G(2d,p)
 ****
 33  34 0
 6-311+G(2d,p)
 ****
 1  2  14  15  16  17  18  19  20  21  22  24  25  26  27 0
 3-21G
 ****
 35  36  37  38  39  40  41  42  43  44  45 0
 3-21G
 ****


