%nproc=1
%NoSave
%Mem=1900MB
#P OB98/GEN NMR

erre ene a

0 1
  C      237.183     -34.408     706.304
  O      236.140     -34.117     705.399
  H      238.002     -34.884     705.756
  H      236.827     -35.099     707.071
  H      237.563     -33.496     706.775
  P      234.945     -33.161     705.872
  C      236.182     -30.998     705.196
  O      235.616     -31.754     706.264
  C      236.387     -29.534     705.620
  O      237.204     -29.509     706.831
  C      237.106     -28.677     704.562
  O      236.616     -27.335     704.702
  C      238.548     -28.761     705.020
  O      239.333     -27.744     704.446
  C      238.367     -28.705     706.545
  N      239.549     -29.178     707.257
  C      240.574     -28.259     707.437
  O      240.541     -27.110     706.987
  N      241.684     -28.709     708.103
  C      241.880     -29.984     708.551
  O      242.908     -30.344     709.111
  C      240.779     -30.928     708.299
  C      239.674     -30.489     707.682
  O      234.034     -33.727     706.912
  O      234.160     -32.807     704.521
  H      240.287     -27.922     704.590
  H      233.219     -32.657     704.711
  H      242.434     -28.050     708.246
  H      240.900     -31.945     708.636
  H      238.847     -31.154     707.484
  H      238.159     -27.677     706.867
  H      238.993     -29.719     704.727
  H      236.955     -29.038     703.544
  H      235.416     -29.107     705.885
  H      235.494     -31.041     704.349
  H      237.142     -31.440     704.906
  P      236.548     -26.316     703.455
  C      233.976     -26.439     703.234
  O      235.235     -26.659     702.590
  O      237.807     -26.240     702.657
  O      236.200     -24.899     704.118
  H      236.561     -24.178     703.555
  H      233.183     -26.701     702.565
  H      233.889     -25.407     703.504
  H      233.915     -27.045     704.114

 6  7  8  9  10  11  12  13  14  15  16  26  31  32  33  34  35 0
 6-311+G(2d,p)
 ****
 36  37 0
 6-311+G(2d,p)
 ****
 1  2  3  4  5  17  18  19  20  21  22  23  24  25 0
 3-21G
 ****
 27  28  29  30  38  39  40  41  42  43  44  45 0
 3-21G
 ****


