%nproc=1
%NoSave
%Mem=1900MB
#P OB98/GEN NMR

erre ene a

0 1
  C     -418.059     496.436     578.454
  O     -417.491     495.279     577.874
  H     -419.083     496.544     578.086
  H     -417.484     497.321     578.166
  H     -418.082     496.344     579.542
  P     -415.985     494.935     578.303
  C     -416.351     492.478     579.095
  O     -416.095     493.826     579.456
  C     -417.746     492.054     579.568
  O     -418.737     492.905     578.923
  C     -418.109     490.603     579.215
  O     -419.028     490.122     580.209
  C     -418.837     490.783     577.893
  O     -419.542     489.614     577.542
  C     -419.647     492.032     578.220
  N     -423.460     492.106     574.814
  C     -423.251     491.349     575.911
  N     -422.218     491.395     576.776
  C     -421.351     492.361     576.430
  C     -421.434     493.219     575.347
  C     -422.551     493.063     574.507
  N     -422.764     493.828     573.384
  N     -420.350     494.076     575.316
  C     -419.626     493.740     576.365
  N     -420.187     492.705     577.062
  O     -415.513     496.250     579.080
  O     -415.062     494.586     577.183
  H     -420.182     489.794     576.820
  H     -415.030     496.842     578.472
  H     -424.012     490.603     576.120
  H     -418.691     494.203     576.661
  H     -420.484     491.811     578.894
  H     -418.129     490.977     577.081
  H     -417.242     489.938     579.166
  H     -417.828     492.237     580.647
  H     -415.590     491.844     579.564
  H     -416.290     492.374     578.009
  H     -423.581     493.641     572.827
  H     -422.084     494.531     573.135
  P     -418.449     489.427     581.539
  C     -418.265     491.151     583.498
  O     -417.644     490.525     582.384
  O     -417.259     488.525     580.951
  O     -419.419     488.588     582.305
  H     -417.122     487.751     581.529
  H     -417.586     491.850     583.939
  H     -418.532     490.409     584.221
  H     -419.145     491.665     583.173

 6  7  8  9  10  11  12  13  14  15  25  28  32  33  34  35 0
 6-311+G(2d,p)
 ****
 36  37  40 0
 6-311+G(2d,p)
 ****
 1  2  3  4  5  16  17  18  19  20  21  22  23  24 0
 3-21G
 ****
 26  27  29  30  31  38  39 41  42  43  44  45  46  47  48 0
 3-21G
 ****


