%nproc=1
%NoSave
%Mem=1900MB
#P OB98/GEN NMR

erre ene a

0 1
  C      136.781    -205.635      41.934
  O      136.299    -206.378      40.804
  P      137.013    -207.781      40.482
  C      135.015    -208.724      39.059
  O      136.373    -208.283      39.099
  C      134.650    -209.164      37.645
  O      134.471    -208.010      36.783
  C      135.711    -210.025      36.959
  O      135.728    -211.343      37.478
  C      135.274    -209.908      35.501
  O      134.193    -210.808      35.226
  C      134.776    -208.441      35.437
  N      135.720    -207.542      34.787
  C      135.978    -207.789      33.438
  O      135.454    -208.725      32.816
  N      136.856    -206.939      32.824
  C      137.521    -205.916      33.423
  O      138.299    -205.170      32.819
  C      137.259    -205.722      34.870
  C      136.383    -206.533      35.472
  O      136.354    -208.729      41.595
  O      138.505    -207.701      40.517
  H      135.422    -208.498      41.781
  H      133.384    -210.377      35.575
  H      137.046    -207.096      31.850
  H      137.786    -204.928      35.377
  H      136.177    -206.419      36.533
  H      133.827    -208.394      34.877
  H      136.091    -210.140      34.802
  H      136.704    -209.561      37.085
  H      133.693    -209.712      37.687
  H      134.347    -207.915      39.373
  H      134.899    -209.546      39.773
  P      137.165    -212.002      37.752
  C      136.828    -212.332      40.330
  O      136.999    -212.916      39.058
  O      137.995    -210.730      38.268
  O      137.757    -212.674      36.563
  H      137.495    -210.191      38.912
  H      136.396    -213.074      41.010
  H      136.157    -211.469      40.281
  H      137.798    -212.018      40.728
  H      136.220    -204.729      42.031
  H      137.815    -205.401      41.792
  H      136.667    -206.222      42.822

 3  4  5  6  7  8  9  10  11  12  13  24  28  29  30  31  32 0
 6-311+G(2d,p)
 ****
 33  34 0
 6-311+G(2d,p)
 ****
 1  2  14  15  16  17  18  19  20  21  22  23  25  26  27 0
 3-21G
 ****
 35  36  37  38  39  40  41  42  43  44  45 0
 3-21G
 ****


