%nproc=1
%NoSave
%Mem=1900MB
#P OB98/GEN NMR

erre ene a

0 1
  C      194.158     741.372    -514.481
  O      193.497     742.615    -514.363
  H      194.753     741.202    -513.578
  H      194.827     741.370    -515.346
  H      193.430     740.560    -514.575
  P      192.606     743.135    -515.587
  C      194.264     744.921    -516.428
  O      192.998     744.676    -515.829
  C      194.846     746.253    -515.907
  O      193.963     747.320    -516.342
  C      194.939     746.297    -514.370
  O      196.239     746.643    -513.893
  C      193.767     747.202    -513.971
  O      193.941     747.868    -512.738
  C      193.622     748.121    -515.195
  N      192.282     748.691    -515.337
  C      191.957     749.774    -514.522
  O      192.714     750.303    -513.697
  N      190.689     750.268    -514.675
  C      189.742     749.805    -515.534
  O      188.619     750.299    -515.640
  C      190.141     748.647    -516.360
  C      191.366     748.152    -516.229
  O      191.141     742.873    -515.485
  O      193.243     742.398    -516.867
  H      194.779     748.366    -512.784
  H      192.672     741.650    -517.128
  H      190.437     751.057    -514.093
  H      189.400     748.243    -517.040
  H      191.696     747.305    -516.813
  H      194.331     748.951    -515.132
  H      192.862     746.574    -513.882
  H      194.778     745.290    -513.940
  H      195.822     746.421    -516.379
  H      194.129     744.967    -517.514
  H      194.954     744.105    -516.189
  P      197.404     745.603    -513.575
  C      196.489     745.173    -511.150
  O      197.593     745.516    -511.991
  O      198.644     745.739    -514.401
  O      196.730     744.171    -513.950
  H      197.458     743.593    -514.284
  H      196.808     745.165    -510.129
  H      196.125     744.203    -511.417
  H      195.708     745.894    -511.275

 6  7  8  9  10  11  12  13  14  15  16  26  31  32  33  34  35 0
 6-311+G(2d,p)
 ****
 36  37 0
 6-311+G(2d,p)
 ****
 1  2  3  4  5  17  18  19  20  21  22  23  24  25 0
 3-21G
 ****
 27  28  29  30  38  39  40  41  42  43  44  45 0
 3-21G
 ****


