%nproc=1
%NoSave
%Mem=1900MB
#P OB98/GEN NMR

erre ene a

0 1
  C     -183.128     407.632     113.937
  O     -182.140     407.501     114.943
  P     -180.917     408.530     115.037
  C     -179.446     407.307     113.331
  O     -180.142     408.505     113.634
  C     -177.980     407.381     113.765
  O     -177.291     406.169     113.355
  C     -177.213     408.575     113.176
  O     -176.327     409.056     114.194
  C     -176.431     407.958     112.032
  O     -175.301     408.731     111.667
  C     -176.114     406.572     112.619
  N     -175.772     405.603     111.596
  C     -174.478     405.687     111.058
  O     -173.742     406.626     111.357
  N     -174.068     404.707     110.189
  C     -174.927     403.838     109.751
  N     -174.463     402.847     108.935
  C     -176.358     403.874     110.103
  C     -176.699     404.746     111.050
  O     -180.038     408.354     116.233
  O     -181.608     409.972     115.044
  H     -181.286     410.479     115.812
  H     -174.687     408.777     112.431
  H     -177.065     403.213     109.614
  H     -177.723     404.832     111.408
  H     -175.293     406.639     113.344
  H     -177.079     407.857     111.154
  H     -177.874     409.392     112.863
  H     -177.951     407.418     114.859
  H     -173.467     402.827     108.750
  H     -179.490     407.154     112.252
  H     -174.972     401.970     108.813
  H     -179.945     406.451     113.806
  P     -176.398     410.604     114.605
  C     -174.509     411.412     113.007
  O     -175.881     411.472     113.356
  O     -175.170     410.727     115.629
  O     -177.661     411.063     115.270
  H     -175.333     411.478     116.235
  H     -174.327     412.110     112.188
  H     -174.251     410.405     112.679
  H     -173.890     411.701     113.862
  H     -183.853     406.852     114.045
  H     -182.668     407.560     112.974
  H     -183.610     408.583     114.032

 3  4  5  6  7  8  9  10  11  12  13  24  27  28  29  30  32 0
 6-311+G(2d,p)
 ****
 34  35 0
 6-311+G(2d,p)
 ****
 1  2  14  15  16  17  18  19  20  21  22  23  25  26 0
 3-21G
 ****
 31  33  36  37  38  39  40  41  42  43  44  45  46 0
 3-21G
 ****


