%nproc=1
%NoSave
%Mem=1900MB
#P OB98/GEN NMR

erre ene a

0 1
  C     -234.365     251.767     -14.930
  O     -234.310     251.161     -13.655
  H     -234.950     251.150     -15.619
  H     -234.846     252.745     -14.834
  H     -233.354     251.909     -15.322
  P     -233.730     249.666     -13.600
  C     -235.856     248.676     -12.494
  O     -235.001     248.685     -13.628
  C     -236.322     247.255     -12.197
  O     -237.125     246.758     -13.289
  C     -235.201     246.239     -12.025
  O     -234.603     246.317     -10.737
  C     -235.971     244.938     -12.210
  O     -236.644     244.596     -10.983
  C     -236.999     245.310     -13.288
  N     -238.732     244.131     -17.976
  C     -239.368     244.544     -16.856
  N     -238.848     244.826     -15.647
  C     -237.514     244.664     -15.650
  C     -236.728     244.249     -16.714
  C     -237.390     243.970     -17.923
  N     -236.732     243.534     -19.055
  N     -235.399     244.213     -16.353
  C     -235.379     244.595     -15.091
  N     -236.636     244.874     -14.622
  O     -233.192     249.528     -12.095
  O     -232.660     249.359     -14.593
  H     -237.046     243.716     -11.123
  H     -232.389     248.975     -12.097
  H     -240.447     244.665     -16.948
  H     -234.484     244.691     -14.488
  H     -237.990     244.905     -13.056
  H     -235.330     244.094     -12.476
  H     -234.453     246.332     -12.821
  H     -236.958     247.290     -11.303
  H     -236.729     249.307     -12.691
  H     -237.224     243.541     -19.929
  H     -235.724     243.424     -19.004
  H     -235.309     249.085     -11.637
  P     -233.009     246.146     -10.650
  C     -233.482     243.650     -10.124
  O     -232.728     244.586     -10.887
  O     -232.711     246.342      -9.090
  O     -232.225     247.098     -11.489
  H     -231.792     246.651      -8.962
  H     -233.188     242.656     -10.388
  H     -234.524     243.780     -10.329
  H     -233.301     243.811      -9.082

 6  7  8  9  10  11  12  13  14  15  25  28  32  33  34  35 0
 6-311+G(2d,p)
 ****
 36  39  40 0
 6-311+G(2d,p)
 ****
 1  2  3  4  5  16  17  18  19  20  21  22  23  24 0
 3-21G
 ****
 26  27  29  30  31  37  38  41  42  43  44  45  46  47  48 0
 3-21G
 ****


