%nproc=1
%NoSave
%Mem=1900MB
#P OB98/GEN NMR

erre ene a

0 1
  C      202.960     619.343    -276.271
  O      202.863     618.480    -275.131
  P      203.745     618.792    -273.824
  C      202.253     620.709    -272.918
  O      203.535     620.327    -273.409
  C      202.409     621.557    -271.649
  O      203.162     622.775    -271.918
  C      201.071     622.045    -271.094
  O      200.238     621.061    -270.528
  C      201.497     623.202    -270.208
  O      201.925     622.747    -268.920
  C      202.684     623.783    -271.004
  N      202.332     625.020    -271.709
  C      202.308     626.184    -270.951
  O      202.521     626.198    -269.736
  N      201.996     627.333    -271.623
  C      201.675     627.430    -272.950
  O      201.375     628.483    -273.497
  C      201.692     626.164    -273.698
  C      202.009     625.034    -273.059
  O      205.159     618.324    -273.870
  O      202.940     618.017    -272.668
  H      201.137     622.443    -268.437
  H      203.596     617.595    -272.080
  H      201.978     628.188    -271.086
  H      201.432     626.197    -274.749
  H      202.026     624.087    -273.595
  H      203.523     624.020    -270.329
  H      200.665     623.901    -270.042
  H      200.497     622.472    -271.929
  H      202.964     620.983    -270.908
  H      201.660     619.821    -272.707
  H      201.725     621.259    -273.702
  P      198.629     621.167    -270.521
  C      198.236     619.776    -272.679
  O      198.116     621.024    -272.034
  O      198.013     622.246    -269.687
  O      198.219     619.743    -269.909
  H      197.397     619.860    -269.382
  H      197.857     619.864    -273.698
  H      197.670     619.006    -272.154
  H      199.293     619.479    -272.730
  H      202.309     618.989    -277.043
  H      203.968     619.349    -276.629
  H      202.675     620.336    -275.992

 3  4  5  6  7  8  9  10  11  12  13  23  28  29  30  31  32 0
 6-311+G(2d,p)
 ****
 33  34 0
 6-311+G(2d,p)
 ****
 1  2  14  15  16  17  18  19  20  21  22  24  25  26  27 0
 3-21G
 ****
 35  36  37  38  39  40  41  42  43  44  45 0
 3-21G
 ****


