%nproc=1
%NoSave
%Mem=1900MB
#P OB98/GEN NMR

erre ene a

0 1
  C      -57.470     -69.191      83.712
  O      -56.487     -68.724      82.812
  H      -57.654     -68.416      84.460
  H      -57.125     -70.094      84.222
  H      -58.405     -69.395      83.183
  P      -55.984     -69.702      81.644
  C      -54.547     -70.934      83.399
  O      -55.502     -71.060      82.351
  C      -53.455     -72.003      83.249
  O      -54.059     -73.291      83.528
  C      -52.860     -72.043      81.833
  O      -51.438     -71.953      81.825
  C      -53.505     -73.281      81.222
  O      -52.752     -73.880      80.187
  C      -53.758     -74.180      82.436
  N      -54.840     -75.145      82.243
  C      -54.588     -76.228      81.405
  O      -53.527     -76.444      80.827
  N      -55.633     -77.105      81.244
  C      -56.868     -76.997      81.809
  O      -57.763     -77.818      81.628
  C      -57.081     -75.817      82.662
  C      -56.075     -74.957      82.835
  O      -55.000     -69.113      80.691
  O      -57.332     -70.143      80.900
  H      -53.318     -74.572      79.781
  H      -57.401     -69.674      80.048
  H      -55.459     -77.903      80.651
  H      -58.056     -75.694      83.115
  H      -56.196     -74.075      83.458
  H      -52.857     -74.743      82.692
  H      -54.469     -72.990      80.788
  H      -53.170     -71.161      81.258
  H      -52.684     -71.827      84.008
  H      -55.072     -71.058      84.350
  H      -54.096     -69.937      83.367
  P      -50.601     -70.665      81.397
  C      -49.525     -70.695      78.997
  O      -50.677     -70.511      79.808
  O      -49.252     -70.525      82.023
  O      -51.505     -69.433      81.921
  H      -50.882     -68.719      82.160
  H      -49.785     -70.549      77.969
  H      -49.149     -71.687      79.132
  H      -48.774     -69.987      79.279

 6  7  8  9  10  11  12  13  14  15  16  26  31  32  33  34  35 0
 6-311+G(2d,p)
 ****
 36  37 0
 6-311+G(2d,p)
 ****
 1  2  3  4  5  17  18  19  20  21  22  23  24  25 0
 3-21G
 ****
 27  28  29  30  38  39  40  41  42  43  44  45 0
 3-21G
 ****


