%nproc=1
%NoSave
%Mem=1900MB
#P OB98/GEN NMR

erre ene a

0 1
  C        0.538     122.415    -103.236
  O        1.512     122.533    -102.198
  P        2.017     123.991    -101.766
  C        4.162     123.611    -103.141
  O        3.099     124.501    -102.839
  C        5.088     124.208    -104.210
  O        4.329     124.569    -105.401
  C        5.798     125.481    -103.728
  O        7.105     125.581    -104.315
  C        4.940     126.588    -104.309
  O        5.655     127.818    -104.394
  C        4.556     125.971    -105.652
  N        2.407     130.347    -107.219
  C        3.645     130.071    -106.754
  N        4.153     128.879    -106.378
  C        3.243     127.904    -106.534
  C        1.946     128.033    -107.005
  C        1.526     129.329    -107.351
  N        0.256     129.616    -107.796
  N        1.303     126.811    -107.021
  C        2.184     125.967    -106.521
  N        3.379     126.572    -106.244
  O        2.429     124.139    -100.341
  O        0.748     124.916    -102.095
  H        6.439     127.662    -104.952
  H        0.629     125.563    -101.371
  H        4.315     130.923    -106.666
  H        2.003     124.920    -106.329
  H        5.371     126.049    -106.383
  H        4.059     126.745    -103.678
  H        5.896     125.562    -102.640
  H        5.819     123.450    -104.514
  H        3.757     122.658    -103.490
  H        0.010     130.587    -107.909
  H       -0.450     128.893    -107.758
  H        4.713     123.384    -102.221
  P        8.321     124.996    -103.438
  C        8.056     127.114    -101.928
  O        8.214     125.715    -102.011
  O        9.645     125.081    -104.122
  O        7.836     123.497    -103.163
  H        6.929     123.417    -102.820
  H        7.876     127.387    -100.885
  H        7.204     127.446    -102.526
  H        8.966     127.617    -102.270
  H        0.314     121.382    -103.399
  H        0.924     122.842    -104.138
  H       -0.353     122.933    -102.949

 3  4  5  6  7  8  9  10  11  12  22  25  29  30  31  32 0
 6-311+G(2d,p)
 ****
 33  36  37 0
 6-311+G(2d,p)
 ****
 1  2  13  14  15  16  17  18  19  20  21  23  24  26 0
 3-21G
 ****
 27  28  34  35  38  39  40  41  42  43  44  45  46  47  48 0
 3-21G
 ****


