%nproc=1
%NoSave
%Mem=1900MB
#P OB98/GEN NMR

erre ene a

0 1
  C      820.553    -391.936     993.256
  O      819.377    -391.243     992.865
  P      818.378    -390.766     994.032
  C      819.601    -388.567     994.700
  O      818.454    -389.172     994.093
  C      820.042    -387.331     993.901
  O      820.597    -387.718     992.639
  C      818.911    -386.373     993.577
  O      818.583    -385.515     994.661
  C      819.523    -385.573     992.434
  O      820.404    -384.566     992.962
  C      820.327    -386.644     991.685
  N      818.501    -385.569     987.094
  C      819.359    -384.852     987.893
  N      819.724    -383.625     987.444
  N      819.804    -385.261     989.062
  C      819.347    -386.501     989.397
  C      818.507    -387.321     988.671
  C      818.006    -386.835     987.401
  O      817.217    -387.405     986.670
  N      818.272    -388.498     989.326
  C      818.976    -388.402     990.441
  N      819.606    -387.180     990.540
  O      819.132    -391.219     995.376
  O      817.001    -391.344     993.948
  H      821.229    -385.034     993.233
  H      818.504    -391.228     996.125
  H      818.179    -385.197     986.216
  H      819.034    -389.173     991.195
  H      821.283    -386.266     991.344
  H      818.784    -385.063     991.821
  H      819.360    -383.209     986.592
  H      818.025    -386.905     993.208
  H      820.289    -383.032     988.051
  H      820.814    -386.820     994.487
  H      820.421    -389.299     994.735
  H      819.335    -388.287     995.724
  P      817.063    -385.000     994.761
  C      816.365    -386.805     996.508
  O      816.568    -385.425     996.214
  O      816.283    -385.997     993.780
  O      816.878    -383.561     994.370
  H      815.480    -385.583     993.424
  H      816.296    -386.920     997.591
  H      817.207    -387.405     996.148
  H      815.431    -387.140     996.033
  H      821.122    -392.192     992.387
  H      820.283    -392.828     993.781
  H      821.140    -391.310     993.895

 3  4  5  6  7  8  9  10  11  12  23  26  30  31 0
 6-311+G(2d,p)
 ****
 33  35  36  37  38 0
 6-311+G(2d,p)
 ****
 1  2  13  14  15  16  17  18  19  20  21  22  24  25 0
 3-21G
 ****
 27  28  29  32  34  39  40  41  42  43  44  45  46  47  48  49 0
 3-21G
 ****


