%nproc=1
%NoSave
%Mem=1900MB
#P OB98/GEN NMR

erre ene a

0 1
  C      335.110    -415.971      92.781
  O      334.759    -415.375      91.549
  H      334.619    -416.947      92.859
  H      334.778    -415.345      93.618
  H      336.194    -416.117      92.837
  P      335.294    -413.890      91.282
  C      334.569    -414.213      88.809
  O      334.573    -413.369      89.946
  C      333.406    -413.829      87.891
  O      333.358    -412.383      87.743
  C      333.525    -414.373      86.477
  O      333.153    -415.741      86.379
  C      332.572    -413.460      85.732
  O      331.211    -413.909      85.825
  C      332.768    -412.113      86.460
  N      333.572    -411.181      85.670
  C      332.906    -410.553      84.619
  O      331.719    -410.756      84.350
  N      333.662    -409.708      83.847
  C      334.998    -409.477      84.000
  O      335.626    -408.756      83.246
  C      335.646    -410.173      85.121
  C      334.918    -410.987      85.889
  O      336.810    -414.118      90.837
  O      335.190    -412.961      92.453
  H      337.408    -413.852      91.558
  H      331.169    -414.707      85.269
  H      333.191    -409.251      83.082
  H      336.712    -410.016      85.269
  H      335.375    -411.525      86.715
  H      331.789    -411.645      86.657
  H      332.829    -413.410      84.669
  H      334.545    -414.222      86.088
  H      332.468    -414.158      88.361
  H      334.436    -415.258      89.129
  H      335.526    -414.121      88.293
  P      334.171    -416.750      85.656
  C      332.673    -418.856      86.176
  O      333.294    -418.018      85.210
  O      335.019    -417.260      86.916
  O      334.976    -416.101      84.587
  H      334.493    -417.226      87.742
  H      332.139    -419.639      85.679
  H      331.992    -418.278      86.765
  H      333.421    -419.282      86.812

 6  7  8  9  10  11  12  13  14  15  16  27  31  32  33  34  35 0
 6-311+G(2d,p)
 ****
 36  37 0
 6-311+G(2d,p)
 ****
 1  2  3  4  5  17  18  19  20  21  22  23  24  25 0
 3-21G
 ****
 26  28  29  30  38  39  40  41  42  43  44  45 0
 3-21G
 ****


