%nproc=1
%NoSave
%Mem=1900MB
#P OB98/GEN NMR

erre ene a

0 1
  C       33.715    -643.565     474.494
  O       33.919    -642.200     474.079
  P       33.220    -640.945     474.798
  C       35.190    -639.262     474.788
  O       33.908    -639.605     474.253
  C       35.794    -638.078     474.036
  O       36.327    -638.504     472.764
  C       34.817    -636.964     473.673
  O       34.437    -636.191     474.801
  C       35.613    -636.201     472.621
  O       36.512    -635.254     473.223
  C       36.419    -637.322     471.935
  N       35.968    -637.601     470.582
  C       36.908    -637.422     469.559
  O       38.024    -636.979     469.813
  N       36.550    -637.740     468.276
  C       35.323    -638.100     468.013
  N       35.030    -638.420     466.728
  C       34.267    -638.161     469.043
  C       34.650    -637.914     470.290
  O       33.191    -641.040     476.291
  O       31.737    -640.892     474.200
  H       31.146    -640.459     474.838
  H       37.028    -634.858     472.496
  H       33.258    -638.428     468.779
  H       33.950    -637.948     471.108
  H       37.485    -637.065     471.911
  H       34.964    -635.633     471.939
  H       33.930    -637.409     473.207
  H       36.621    -637.674     474.644
  H       35.780    -638.374     466.046
  H       35.852    -640.132     474.686
  H       34.117    -638.735     466.426
  H       35.078    -639.042     475.854
  P       32.923    -635.653     474.830
  C       32.172    -636.634     477.117
  O       32.506    -635.480     476.372
  O       32.067    -636.904     474.334
  O       32.682    -634.447     473.978
  H       31.337    -636.597     473.765
  H       32.382    -636.444     478.168
  H       32.738    -637.505     476.781
  H       31.095    -636.834     477.001
  H       34.284    -644.218     473.865
  H       32.676    -643.810     474.416
  H       34.033    -643.681     475.509

 3  4  5  6  7  8  9  10  11  12  13  24  27  28  29  30  32 0
 6-311+G(2d,p)
 ****
 34  35 0
 6-311+G(2d,p)
 ****
 1  2  14  15  16  17  18  19  20  21  22  23  25  26 0
 3-21G
 ****
 31  33  36  37  38  39  40  41  42  43  44  45  46 0
 3-21G
 ****


