%nproc=1
%NoSave
%Mem=1900MB
#P OB98/GEN NMR

erre ene a

0 1
  C       47.885     -51.684     103.502
  O       47.839     -50.593     104.402
  P       47.236     -49.184     103.950
  C       49.561     -48.123     104.103
  O       48.205     -48.037     104.520
  C       50.498     -48.308     105.296
  O       50.729     -47.016     105.922
  C       49.973     -49.256     106.383
  O       51.112     -49.923     106.934
  C       49.397     -48.298     107.412
  O       49.275     -48.881     108.703
  C       50.409     -47.161     107.321
  N       49.493     -44.434     111.545
  C       49.974     -45.682     111.369
  N       50.164     -46.347     110.212
  C       49.805     -45.591     109.163
  C       49.271     -44.313     109.189
  C       49.132     -43.716     110.455
  N       48.676     -42.432     110.650
  N       48.974     -43.890     107.906
  C       49.323     -44.893     107.128
  N       49.890     -45.915     107.838
  O       45.789     -48.982     104.254
  O       47.506     -49.135     102.374
  H       48.955     -48.197     109.322
  H       46.669     -49.277     101.889
  H       50.247     -46.215     112.275
  H       49.190     -44.932     106.057
  H       51.337     -47.390     107.859
  H       48.401     -47.971     107.093
  H       49.236     -49.979     106.024
  H       51.467     -48.659     104.918
  H       49.815     -47.194     103.585
  H       48.742     -42.060     111.585
  H       48.654     -41.793     109.859
  H       49.681     -48.954     103.398
  P       51.123     -51.521     107.051
  C       49.318     -51.784     108.845
  O       50.701     -51.871     108.554
  O       52.364     -52.190     106.561
  O       49.837     -51.966     106.201
  H       49.907     -52.913     105.976
  H       49.048     -50.739     109.020
  H       49.108     -52.362     109.749
  H       48.716     -52.180     108.023
  H       48.320     -52.531     103.990
  H       48.477     -51.420     102.651
  H       46.892     -51.927     103.185

 3  4  5  6  7  8  9  10  11  12  22  25  29  30  31  32 0
 6-311+G(2d,p)
 ****
 33  36  37 0
 6-311+G(2d,p)
 ****
 1  2  13  14  15  16  17  18  19  20  21  23  24  26 0
 3-21G
 ****
 27  28  34  35  38  39  40  41  42  43  44  45  46  47  48 0
 3-21G
 ****


