%nproc=1
%NoSave
%Mem=1900MB
#P OB98/GEN NMR

erre ene a

0 1
  C      380.941    -675.413    -853.457
  O      382.078    -674.631    -853.099
  P      382.808    -674.931    -851.697
  C      383.018    -672.376    -851.368
  O      383.671    -673.655    -851.284
  C      384.051    -671.236    -851.317
  O      384.689    -671.240    -850.000
  C      385.206    -671.344    -852.339
  O      385.019    -670.753    -853.619
  C      386.285    -670.546    -851.631
  O      386.105    -669.135    -851.904
  C      386.068    -670.828    -850.157
  N      390.308    -671.620    -847.429
  C      389.670    -670.493    -847.784
  N      388.546    -670.363    -848.521
  C      388.065    -671.579    -848.884
  C      388.607    -672.816    -848.577
  C      389.804    -672.810    -847.813
  N      390.458    -673.966    -847.460
  N      387.844    -673.820    -849.124
  C      386.878    -673.205    -849.738
  N      386.947    -671.839    -849.614
  O      383.502    -676.250    -851.601
  O      381.577    -674.866    -850.662
  H      386.325    -669.006    -852.838
  H      381.712    -675.550    -849.959
  H      390.126    -669.561    -847.446
  H      386.082    -673.700    -850.313
  H      386.206    -669.922    -849.534
  H      387.290    -670.793    -852.007
  H      385.519    -672.386    -852.445
  H      383.542    -670.286    -851.446
  H      382.307    -672.269    -850.542
  H      391.330    -673.885    -846.949
  H      390.114    -674.853    -847.794
  H      382.437    -672.384    -852.289
  P      384.624    -671.654    -854.899
  C      386.428    -670.446    -856.353
  O      385.077    -670.796    -856.185
  O      383.202    -672.111    -854.927
  O      385.702    -672.825    -854.845
  H      386.623    -672.547    -855.035
  H      386.566    -670.066    -857.375
  H      387.088    -671.309    -856.202
  H      386.699    -669.647    -855.648
  H      380.574    -675.093    -854.410
  H      380.176    -675.288    -852.719
  H      381.220    -676.445    -853.511

 3  4  5  6  7  8  9  10  11  12  22  25  29  30  31  32 0
 6-311+G(2d,p)
 ****
 33  36  37 0
 6-311+G(2d,p)
 ****
 1  2  13  14  15  16  17  18  19  20  21  23  24  26 0
 3-21G
 ****
 27  28  34  35  38  39  40  41  42  43  44  45  46  47  48 0
 3-21G
 ****


