%nproc=1
%NoSave
%Mem=1900MB
#P OB98/GEN NMR

erre ene a

0 1
  C     -203.125     865.689    -151.516
  O     -203.497     866.942    -152.052
  H     -204.022     865.184    -151.145
  H     -202.430     865.826    -150.686
  H     -202.666     865.069    -152.291
  P     -202.319     867.852    -152.651
  C     -203.607     869.439    -154.249
  O     -202.980     869.281    -152.983
  C     -205.057     868.957    -154.188
  O     -205.695     869.529    -153.017
  C     -205.891     869.354    -155.417
  O     -206.786     868.279    -155.731
  C     -206.700     870.538    -154.914
  O     -207.889     870.736    -155.671
  C     -206.936     870.122    -153.463
  N     -210.822     873.000    -152.074
  C     -210.776     871.894    -152.902
  N     -211.945     871.497    -153.457
  N     -209.678     871.241    -153.175
  C     -208.588     871.733    -152.535
  C     -208.502     872.820    -151.697
  C     -209.722     873.551    -151.421
  O     -209.826     874.546    -150.716
  N     -207.208     873.019    -151.280
  C     -206.520     872.053    -151.858
  N     -207.311     871.248    -152.628
  O     -202.060     867.221    -154.099
  O     -201.072     867.914    -151.832
  H     -208.403     871.448    -155.239
  H     -201.129     867.336    -154.367
  H     -211.695     873.470    -151.910
  H     -205.451     871.899    -151.758
  H     -207.729     869.372    -153.368
  H     -206.101     871.452    -154.967
  H     -212.832     871.932    -153.268
  H     -205.289     869.601    -156.295
  H     -211.930     870.681    -154.059
  H     -205.057     867.869    -154.048
  H     -203.058     868.856    -154.993
  H     -203.580     870.495    -154.532
  P     -206.347     867.267    -156.895
  C     -207.817     865.256    -156.162
  O     -207.548     866.232    -157.158
  O     -205.230     866.367    -156.180
  O     -205.804     867.941    -158.111
  H     -204.353     866.597    -156.531
  H     -208.637     864.644    -156.475
  H     -208.067     865.744    -155.243
  H     -206.950     864.645    -156.018

 6  7  8  9  10  11  12  13  14  15  26  29  33  34 0
 6-311+G(2d,p)
 ****
 36  38  39  40  41 0
 6-311+G(2d,p)
 ****
 1  2  3  4  5  16  17  18  19  20  21  22  23  24  25 0
 3-21G
 ****
 27  28  30  31  32  35  37  42  43  44  45  46  47 0
 3-21G
 ****
 48  49 0
 3-21G
 ****


