%nproc=1
%NoSave
%Mem=1900MB
#P OB98/GEN NMR

erre ene a

0 1
  C      409.812     506.942      54.102
  O      409.048     505.823      53.660
  P      409.658     504.549      52.912
  C      410.473     502.161      53.614
  O      409.943     503.415      54.004
  C      410.820     501.249      54.807
  O      411.685     501.964      55.729
  C      409.554     500.895      55.591
  O      408.730     499.825      55.165
  C      410.017     500.782      57.037
  O      410.338     499.440      57.408
  C      411.270     501.659      57.072
  N      411.691     504.062      61.576
  C      411.949     502.742      61.260
  N      412.327     501.940      62.284
  N      411.839     502.249      60.059
  C      411.372     503.132      59.148
  C      411.059     504.459      59.340
  C      411.243     505.010      60.668
  O      411.041     506.179      60.993
  N      410.597     505.037      58.188
  C      410.603     504.063      57.308
  N      411.073     502.883      57.841
  O      410.747     504.833      51.935
  O      408.400     503.971      52.081
  H      409.563     498.882      57.215
  H      408.763     503.578      51.261
  H      411.820     504.396      62.512
  H      410.286     504.150      56.273
  H      412.109     501.134      57.547
  H      409.223     501.111      57.721
  H      412.315     502.232      63.248
  H      408.903     501.777      55.562
  H      412.305     500.935      62.100
  H      411.384     500.377      54.482
  H      411.372     502.365      53.021
  H      409.776     501.648      52.952
  P      407.489     499.927      54.158
  C      407.204     500.481      51.673
  O      408.065     499.945      52.667
  O      406.962     501.430      54.348
  O      406.391     498.945      54.405
  H      406.064     501.525      53.984
  H      407.558     500.162      50.688
  H      407.218     501.573      51.719
  H      406.177     500.126      51.813
  H      409.164     507.653      54.570
  H      410.295     507.398      53.263
  H      410.550     506.615      54.804

 3  4  5  6  7  8  9  10  11  12  23  26  30  31 0
 6-311+G(2d,p)
 ****
 33  35  36  37  38 0
 6-311+G(2d,p)
 ****
 1  2  13  14  15  16  17  18  19  20  21  22  24  25 0
 3-21G
 ****
 27  28  29  32  34  39  40  41  42  43  44  45  46  47  48  49 0
 3-21G
 ****


