%nproc=1
%NoSave
%Mem=1900MB
#P OB98/GEN NMR

erre ene a

0 1
  C      142.375     796.103    -282.754
  O      142.714     794.748    -282.533
  H      143.231     796.605    -283.214
  H      142.154     796.599    -281.806
  H      141.516     796.183    -283.429
  P      141.578     793.748    -282.006
  C      140.703     792.839    -284.259
  O      141.459     792.569    -283.085
  C      141.514     792.460    -285.496
  O      142.550     793.440    -285.739
  C      142.226     791.118    -285.381
  O      141.332     790.045    -285.551
  C      143.277     791.261    -286.476
  O      142.709     790.970    -287.764
  C      143.656     792.752    -286.359
  N      144.896     792.969    -285.615
  C      146.081     792.706    -286.295
  O      146.120     792.286    -287.449
  N      147.234     792.919    -285.584
  C      147.318     793.253    -284.265
  O      148.376     793.340    -283.650
  C      146.031     793.488    -283.589
  C      144.901     793.338    -284.286
  O      140.285     794.380    -281.614
  O      142.270     793.018    -280.756
  H      142.445     790.030    -287.740
  H      141.902     793.383    -279.927
  H      148.105     792.722    -286.061
  H      146.054     793.765    -282.543
  H      143.943     793.504    -283.800
  H      143.775     793.192    -287.358
  H      144.118     790.579    -286.331
  H      142.739     791.051    -284.410
  H      140.836     792.463    -286.368
  H      140.472     793.909    -284.288
  H      139.769     792.269    -284.216
  P      141.609     788.653    -284.803
  C      140.777     789.273    -282.448
  O      140.528     788.505    -283.626
  O      143.023     788.414    -284.393
  O      141.130     787.554    -285.861
  H      141.883     786.977    -286.100
  H      139.998     789.097    -281.736
  H      140.803     790.313    -282.699
  H      141.717     788.985    -282.026

 6  7  8  9  10  11  12  13  14  15  16  26  31  32  33  34  35 0
 6-311+G(2d,p)
 ****
 36  37 0
 6-311+G(2d,p)
 ****
 1  2  3  4  5  17  18  19  20  21  22  23  24  25 0
 3-21G
 ****
 27  28  29  30  38  39  40  41  42  43  44  45 0
 3-21G
 ****


