%nproc=1
%NoSave
%Mem=1900MB
#P OB98/GEN NMR

erre ene a

0 1
  C      -15.494      76.712     -52.578
  O      -15.498      76.650     -51.165
  H      -14.501      76.998     -52.929
  H      -15.734      75.721     -52.973
  H      -16.239      77.425     -52.939
  P      -15.469      78.043     -50.370
  C      -13.949      77.405     -48.366
  O      -15.267      77.673     -48.819
  C      -13.940      76.192     -47.436
  O      -14.587      75.081     -48.118
  C      -12.536      75.730     -47.013
  O      -12.588      75.318     -45.643
  C      -12.294      74.512     -47.887
  O      -11.364      73.600     -47.312
  C      -13.707      73.949     -48.012
  N      -12.597      69.309     -49.768
  C      -12.630      69.816     -48.518
  N      -12.990      71.056     -48.132
  C      -13.411      71.779     -49.183
  C      -13.442      71.397     -50.513
  C      -12.991      70.096     -50.797
  N      -12.890      69.593     -52.074
  N      -13.883      72.441     -51.304
  C      -14.088      73.439     -50.469
  N      -13.815      73.089     -49.177
  O      -16.999      78.514     -50.448
  O      -14.538      79.074     -50.911
  H      -10.501      74.048     -47.214
  H      -17.142      79.024     -51.266
  H      -12.313      69.143     -47.725
  H      -14.401      74.437     -50.746
  H      -14.006      73.359     -47.136
  H      -11.909      74.831     -48.861
  H      -11.762      76.495     -47.139
  H      -14.550      76.426     -46.555
  H      -13.575      78.276     -47.816
  H      -12.455      68.690     -52.189
  H      -13.074      70.203     -52.857
  H      -13.298      77.229     -49.228
  P      -11.372      75.753     -44.695
  C      -10.348      73.386     -44.328
  O      -10.994      74.516     -43.751
  O      -12.048      76.796     -43.685
  O      -10.221      76.364     -45.427
  H      -11.407      77.480     -43.426
  H      -10.166      72.654     -43.570
  H       -9.418      73.690     -44.761
  H      -10.975      72.966     -45.087

 6  7  8  9  10  11  12  13  14  15  25  28  32  33  34  35 0
 6-311+G(2d,p)
 ****
 36  39  40 0
 6-311+G(2d,p)
 ****
 1  2  3  4  5  16  17  18  19  20  21  22  23  24 0
 3-21G
 ****
 26  27  29  30  31  37  38  41  42  43  44  45  46  47 0
 3-21G
 ****
 48 0
 3-21G
 ****


