%nproc=1
%NoSave
%Mem=1900MB
#P OB98/GEN NMR

erre ene a

0 1
  C     -899.180     545.012    -269.465
  O     -898.050     545.849    -269.602
  H     -898.840     543.966    -269.424
  H     -899.850     545.124    -270.329
  H     -899.720     545.240    -268.545
  P     -898.280     547.426    -269.750
  C     -895.720     547.474    -269.432
  O     -896.840     548.074    -270.062
  C     -894.430     548.250    -269.771
  O     -894.140     548.017    -271.175
  C     -894.590     549.762    -269.565
  O     -893.570     550.330    -268.736
  C     -894.730     550.309    -270.987
  O     -894.320     551.647    -271.153
  C     -893.940     549.290    -271.814
  N     -894.350     549.214    -273.213
  C     -893.560     549.895    -274.147
  O     -892.530     550.522    -273.877
  N     -893.980     549.827    -275.446
  C     -895.090     549.182    -275.896
  O     -895.420     549.138    -277.080
  C     -895.910     548.507    -274.878
  C     -895.510     548.559    -273.597
  O     -899.040     548.088    -268.647
  O     -899.050     547.571    -271.156
  H     -894.350     551.852    -272.100
  H     -900.000     547.731    -270.989
  H     -893.410     550.296    -276.134
  H     -896.800     547.993    -275.194
  H     -896.080     548.067    -272.818
  H     -892.880     549.513    -271.794
  H     -895.790     550.255    -271.273
  H     -895.510     549.986    -269.019
  H     -893.610     547.840    -269.188
  H     -895.640     546.441    -269.788
  H     -895.870     547.475    -268.344
  P     -893.470     550.141    -267.159
  C     -890.900     549.810    -267.531
  O     -891.940     550.350    -266.724
  O     -894.180     548.942    -266.599
  O     -894.210     551.466    -266.583
  H     -894.640     551.193    -265.746
  H     -889.952     550.043    -267.094
  H     -890.954     550.233    -268.512
  H     -891.012     548.748    -267.594

 6  7  8  9  10  11  12  13  14  15  16  26  31  32  33  34  35 0
 6-311+G(2d,p)
 ****
 36  37 0
 6-311+G(2d,p)
 ****
 1  2  3  4  5  17  18  19  20  21  22  23  24  25 0
 3-21G
 ****
 27  28  29  30  38  39  40  41  42  43  44  45 0
 3-21G
 ****


