%nproc=1
%NoSave
%Mem=1900MB
#P OB98/GEN NMR

erre ene a

0 1
  C     -100.434     -56.131    -439.427
  O      -99.980     -55.387    -440.542
  H     -100.320     -55.517    -438.529
  H      -99.846     -57.045    -439.302
  H     -101.490     -56.381    -439.551
  P      -99.782     -56.159    -441.935
  C      -97.249     -56.405    -442.386
  O      -98.406     -55.587    -442.546
  C      -95.994     -55.556    -442.185
  O      -95.755     -54.716    -443.335
  C      -96.072     -54.594    -441.009
  O      -96.122     -55.206    -439.743
  C      -94.947     -53.621    -441.323
  O      -93.674     -54.111    -440.909
  C      -95.015     -53.563    -442.873
  N      -95.599     -52.322    -443.355
  C      -94.800     -51.186    -443.252
  O      -93.667     -51.197    -442.763
  N      -95.357     -50.017    -443.698
  C      -96.623     -49.870    -444.179
  O      -97.071     -48.786    -444.549
  C      -97.440     -51.096    -444.234
  C      -96.900     -52.246    -443.822
  O     -100.943     -56.097    -442.886
  O      -99.384     -57.646    -441.495
  H      -93.660     -55.070    -441.101
  H      -99.473     -58.277    -442.253
  H      -94.784     -49.188    -443.649
  H      -98.451     -51.009    -444.604
  H      -97.478     -53.162    -443.856
  H      -94.003     -53.650    -443.297
  H      -95.089     -52.649    -440.844
  H      -97.009     -54.021    -441.101
  H      -95.138     -56.236    -442.085
  H      -97.138     -57.007    -443.294
  H      -97.393     -57.078    -441.530
  P      -97.169     -54.816    -438.604
  C      -95.505     -54.649    -436.590
  O      -96.601     -55.329    -437.196
  O      -98.615     -55.050    -438.911
  O      -96.949     -53.216    -438.494
  H      -97.817     -52.820    -438.283
  H      -95.260     -55.123    -435.663
  H      -95.774     -53.629    -436.409
  H      -94.658     -54.684    -437.243

 6  7  8  9  10  11  12  13  14  15  16  26  31  32  33  34  35 0
 6-311+G(2d,p)
 ****
 36  37 0
 6-311+G(2d,p)
 ****
 1  2  3  4  5  17  18  19  20  21  22  23  24  25 0
 3-21G
 ****
 27  28  29  30  38  39  40  41  42  43  44  45 0
 3-21G
 ****


