%nproc=1
%NoSave
%Mem=1900MB
#P OB98/GEN NMR

erre ene a

0 1
  C       29.582     182.040    -393.541
  O       29.777     183.407    -393.246
  P       29.629     184.568    -394.333
  C       29.682     186.511    -392.607
  O       30.300     185.903    -393.735
  C       30.613     187.479    -391.863
  O       31.225     188.379    -392.810
  C       29.804     188.350    -390.898
  O       29.468     187.866    -389.613
  C       30.501     189.705    -390.911
  O       31.386     189.878    -389.802
  C       31.285     189.689    -392.224
  N       29.679     194.428    -393.036
  C       30.348     193.912    -391.944
  N       30.426     194.719    -390.863
  N       30.868     192.712    -391.914
  C       30.623     191.992    -393.034
  C       29.986     192.399    -394.182
  C       29.456     193.740    -394.218
  O       28.783     194.206    -395.134
  N       29.859     191.375    -395.085
  C       30.383     190.335    -394.469
  N       30.824     190.652    -393.206
  O       28.310     184.678    -395.024
  O       30.715     184.109    -395.436
  H       30.848     190.103    -389.022
  H       30.368     184.367    -396.311
  H       29.231     195.334    -392.972
  H       30.436     189.333    -394.877
  H       32.346     189.901    -392.044
  H       29.768     190.518    -390.848
  H       29.914     195.587    -390.800
  H       28.833     188.530    -391.374
  H       30.756     194.316    -389.994
  H       31.438     186.943    -391.386
  H       29.350     185.706    -391.942
  H       28.788     187.050    -392.928
  P       28.037     187.967    -388.906
  C       28.708     186.247    -387.136
  O       28.202     187.550    -387.369
  O       27.204     186.745    -389.519
  O       27.313     189.253    -389.131
  H       26.249     186.919    -389.431
  H       28.495     185.963    -386.102
  H       29.792     186.244    -387.289
  H       28.244     185.519    -387.807
  H       29.736     181.459    -392.656
  H       30.278     181.735    -394.294
  H       28.584     181.891    -393.897

 3  4  5  6  7  8  9  10  11  12  23  26  30  31 0
 6-311+G(2d,p)
 ****
 33  35  36  37  38 0
 6-311+G(2d,p)
 ****
 1  2  13  14  15  16  17  18  19  20  21  22  24  25 0
 3-21G
 ****
 27  28  29  32  34  39  40  41  42  43  44  45  46  47  48  49 0
 3-21G
 ****


