%nproc=1
%NoSave
%Mem=1900MB
#P OB98/GEN NMR

erre ene a

0 1
  C      298.363    -296.140     102.230
  O      299.379    -296.731     101.442
  H      298.642    -296.217     103.284
  H      297.416    -296.665     102.076
  H      298.249    -295.085     101.969
  P      299.171    -296.685      99.850
  C      301.749    -296.637      99.487
  O      300.516    -297.284      99.213
  C      302.904    -297.652      99.427
  O      302.766    -298.580     100.541
  C      302.919    -298.495      98.139
  O      304.279    -298.849      97.838
  C      302.163    -299.740      98.571
  O      302.385    -300.793      97.668
  C      302.734    -299.910      99.978
  N      300.307    -304.397     100.092
  C      301.080    -303.815      99.150
  N      301.696    -302.617      99.198
  C      301.478    -302.016     100.388
  C      300.718    -302.486     101.441
  C      300.100    -303.737     101.261
  N      299.299    -304.329     102.211
  N      300.711    -301.573     102.480
  C      301.466    -300.576     102.059
  N      301.949    -300.801     100.801
  O      299.251    -295.122      99.518
  O      297.907    -297.301      99.345
  H      301.813    -301.563      97.872
  H      298.357    -294.731      99.525
  H      301.213    -304.380      98.230
  H      301.682    -299.669     102.615
  H      303.764    -300.294      99.959
  H      301.083    -299.556      98.603
  H      302.474    -297.983      97.279
  H      303.857    -297.125      99.574
  H      301.698    -296.193     100.487
  H      301.922    -295.851      98.746
  H      298.875    -305.212     101.991
  H      299.111    -303.834     103.070
  P      305.015    -298.144      96.589
  C      307.347    -297.817      97.711
  O      306.605    -298.403      96.655
  O      304.906    -296.591      96.975
  O      304.393    -298.392      95.255
  H      304.614    -296.082      96.194
  H      308.379    -298.083      97.612
  H      306.975    -298.173      98.649
  H      307.247    -296.752      97.669

 6  7  8  9  10  11  12  13  14  15  25  28  32  33  34  35 0
 6-311+G(2d,p)
 ****
 36  37  40 0
 6-311+G(2d,p)
 ****
 1  2  3  4  5  16  17  18  19  20  21  22  23  24 0
 3-21G
 ****
 26  27  29  30  31  38  39 41  42  43  44  45  46  47  48 0
 3-21G
 ****


