%nproc=1
%NoSave
%Mem=1900MB
#P OB98/GEN NMR

erre ene a

0 1
  C      105.760    1144.420    -221.737
  O      105.637    1143.578    -220.612
  H      105.215    1143.971    -222.572
  H      106.810    1144.520    -222.023
  H      105.335    1145.407    -221.531
  P      106.235    1144.117    -219.219
  C      104.020    1145.249    -218.470
  O      105.378    1145.425    -218.833
  C      103.693    1146.043    -217.201
  O      103.900    1147.455    -217.471
  C      102.256    1145.863    -216.710
  O      102.261    1145.826    -215.283
  C      101.550    1147.124    -217.180
  O      100.408    1147.446    -216.395
  C      102.686    1148.156    -217.120
  N      102.432    1149.279    -218.017
  C      101.805    1150.396    -217.456
  O      101.483    1150.400    -216.266
  N      101.502    1151.466    -218.262
  C      101.730    1151.391    -219.542
  N      101.379    1152.460    -220.295
  C      102.326    1150.204    -220.184
  C      102.661    1149.201    -219.373
  O      107.655    1144.721    -219.633
  O      106.339    1143.102    -218.133
  H      100.256    1148.413    -216.456
  H      108.304    1144.626    -218.910
  H      102.472    1150.171    -221.259
  H      103.099    1148.281    -219.755
  H      102.808    1148.535    -216.099
  H      101.217    1146.991    -218.223
  H      101.780    1144.956    -217.092
  H      104.417    1145.758    -216.426
  H      100.952    1153.250    -219.818
  H      103.835    1144.188    -218.276
  H      101.464    1152.497    -221.305
  H      103.377    1145.576    -219.298
  P      101.107    1144.969    -214.575
  C      102.494    1142.819    -214.142
  O      101.406    1143.411    -214.832
  O       99.819    1145.269    -215.475
  O      100.878    1145.344    -213.144
  H       99.194    1145.843    -214.988
  H      102.568    1141.786    -214.412
  H      102.334    1142.901    -213.087
  H      103.400    1143.323    -214.406

 6  7  8  9  10  11  12  13  14  15  16  26  30  31  32  33  35 0
 6-311+G(2d,p)
 ****
 37  38 0
 6-311+G(2d,p)
 ****
 1  2  3  4  5  17  18  19  20  21  22  23  24  25 0
 3-21G
 ****
 27  28  29  34  36  39  40  41  42  43  44  45  46 0
 3-21G
 ****


