%nproc=1
%NoSave
%Mem=1900MB
#P OB98/GEN NMR

erre ene a

0 1
  C      248.369    -355.388     250.315
  O      249.372    -355.560     251.298
  H      248.839    -355.187     249.347
  H      247.793    -356.314     250.237
  H      247.694    -354.572     250.582
  P      250.143    -354.247     251.793
  C      248.840    -353.894     254.012
  O      249.101    -353.419     252.697
  C      249.303    -352.874     255.052
  O      248.508    -351.664     254.893
  C      249.159    -353.340     256.509
  O      250.292    -352.872     257.252
  C      247.915    -352.612     256.986
  O      247.900    -352.425     258.397
  C      248.007    -351.316     256.198
  N      244.806    -348.224     258.655
  C      246.120    -348.483     258.827
  N      246.915    -349.282     258.087
  C      246.240    -349.789     257.046
  C      244.899    -349.610     256.733
  C      244.166    -348.791     257.606
  N      242.812    -348.575     257.479
  N      244.562    -350.343     255.609
  C      245.675    -350.975     255.262
  N      246.714    -350.672     256.104
  O      250.243    -353.376     250.449
  O      251.487    -354.474     252.407
  H      248.006    -353.291     258.830
  H      251.047    -353.626     249.958
  H      246.593    -347.992     259.677
  H      245.769    -351.673     254.448
  H      248.702    -350.587     256.652
  H      247.026    -353.185     256.704
  H      249.072    -354.429     256.618
  H      250.345    -352.603     254.833
  H      249.390    -354.834     254.171
  H      242.346    -348.062     258.216
  H      242.300    -349.082     256.773
  H      247.768    -354.089     254.121
  P      251.104    -353.943     258.125
  C      252.456    -354.577     255.992
  O      251.734    -355.032     257.129
  O      249.948    -354.755     258.875
  O      252.062    -353.332     259.092
  H      250.253    -355.044     259.750
  H      252.809    -355.419     255.433
  H      253.289    -353.986     256.311
  H      251.813    -353.984     255.375

 6  7  8  9  10  11  12  13  14  15  25  28  32  33  34  35 0
 6-311+G(2d,p)
 ****
 36  39  40 0
 6-311+G(2d,p)
 ****
 1  2  3  4  5  16  17  18  19  20  21  22  23  24 0
 3-21G
 ****
 26  27  29  30  31  37  38  41  42  43  44  45  46  47 0
 3-21G
 ****
 48 0
 3-21G
 ****


