%nproc=1
%NoSave
%Mem=1900MB
#P OB98/GEN NMR

erre ene a

0 1
  C      525.302     537.950     323.545
  O      524.559     536.840     324.018
  H      524.608     538.745     323.269
  H      525.882     537.667     322.661
  H      525.971     538.318     324.329
  P      525.405     535.521     324.379
  C      524.611     534.635     322.059
  O      524.747     534.394     323.453
  C      523.745     533.553     321.425
  O      524.542     532.388     321.116
  C      522.618     533.042     322.331
  O      521.503     533.921     322.375
  C      522.288     531.736     321.635
  O      521.521     531.992     320.447
  C      523.703     531.206     321.294
  N      524.252     530.332     322.320
  C      523.639     529.090     322.499
  O      522.653     528.782     321.813
  N      524.114     528.234     323.462
  C      525.128     528.582     324.190
  N      525.560     527.714     325.143
  C      525.838     529.873     324.031
  C      525.349     530.688     323.089
  O      524.878     535.120     325.843
  O      526.887     535.647     324.267
  H      521.508     531.162     319.935
  H      525.253     534.244     326.099
  H      526.667     530.129     324.660
  H      525.809     531.659     322.916
  H      523.692     530.665     320.339
  H      521.692     531.063     322.268
  H      522.981     532.822     323.345
  H      523.346     533.943     320.477
  H      525.028     526.856     325.273
  H      525.608     534.629     321.611
  H      526.222     527.970     325.864
  H      524.149     535.608     321.885
  P      520.603     533.922     323.693
  C      518.386     533.051     322.650
  O      519.082     534.148     323.218
  O      520.974     535.306     324.401
  O      520.811     532.746     324.609
  H      521.020     535.207     325.367
  H      517.395     533.355     322.386
  H      518.337     532.253     323.361
  H      518.901     532.717     321.774

 6  7  8  9  10  11  12  13  14  15  16  26  30  31  32  33  35 0
 6-311+G(2d,p)
 ****
 37  38 0
 6-311+G(2d,p)
 ****
 1  2  3  4  5  17  18  19  20  21  22  23  24  25 0
 3-21G
 ****
 27  28  29  34  36  39  40  41  42  43  44  45  46 0
 3-21G
 ****


