%nproc=1
%NoSave
%Mem=1900MB
#P OB98/GEN NMR

erre ene a

0 1
  C     -116.778    -115.300    -262.481
  O     -115.715    -115.615    -261.582
  P     -114.500    -116.524    -262.098
  C     -114.576    -118.281    -260.228
  O     -113.817    -117.248    -260.839
  C     -113.848    -118.915    -259.031
  O     -112.723    -119.725    -259.486
  C     -113.293    -117.902    -258.021
  O     -113.423    -118.496    -256.724
  C     -111.832    -117.802    -258.421
  O     -111.023    -117.254    -257.395
  C     -111.550    -119.262    -258.789
  N     -110.351    -119.408    -259.603
  C     -109.126    -119.454    -258.933
  O     -109.082    -119.269    -257.712
  N     -107.984    -119.677    -259.663
  C     -108.050    -119.701    -260.961
  N     -106.901    -119.943    -261.647
  C     -109.301    -119.474    -261.708
  C     -110.403    -119.361    -260.974
  O     -113.543    -115.848    -263.031
  O     -115.251    -117.738    -262.835
  H     -110.101    -117.174    -257.722
  H     -114.715    -118.022    -263.605
  H     -109.292    -119.414    -262.788
  H     -111.371    -119.202    -261.427
  H     -111.440    -119.876    -257.888
  H     -111.739    -117.155    -259.305
  H     -113.823    -116.945    -258.031
  H     -114.551    -119.592    -258.528
  H     -106.043    -120.071    -261.124
  H     -114.793    -119.057    -260.968
  H     -106.878    -120.024    -262.656
  H     -115.549    -117.880    -259.922
  P     -114.708    -118.139    -255.831
  C     -113.279    -117.070    -253.934
  O     -114.234    -118.045    -254.301
  O     -115.510    -119.536    -255.842
  O     -115.582    -117.044    -256.340
  H     -116.456    -119.354    -255.681
  H     -113.289    -116.962    -252.848
  H     -113.511    -116.101    -254.382
  H     -112.281    -117.391    -254.254
  H     -117.500    -114.690    -261.980
  H     -117.244    -116.204    -262.814
  H     -116.387    -114.769    -263.324

 3  4  5  6  7  8  9  10  11  12  13  23  27  28  29  30  32 0
 6-311+G(2d,p)
 ****
 34  35 0
 6-311+G(2d,p)
 ****
 1  2  14  15  16  17  18  19  20  21  22  24  25  26 0
 3-21G
 ****
 31  33  36  37  38  39  40  41  42  43  44  45  46 0
 3-21G
 ****


