%nproc=1
%NoSave
%Mem=1900MB
#P OB98/GEN NMR

erre ene a

0 1
  C     1285.061     362.512    1309.868
  O     1286.009     361.454    1309.683
  P     1285.606     359.987    1310.195
  C     1286.595     360.686    1312.514
  O     1286.443     359.659    1311.524
  C     1287.476     360.179    1313.673
  O     1286.870     359.032    1314.307
  C     1288.825     359.709    1313.235
  O     1289.698     360.822    1312.981
  C     1289.268     358.838    1314.398
  O     1289.990     359.601    1315.391
  C     1287.948     358.311    1314.953
  N     1287.784     356.870    1314.755
  C     1288.708     356.060    1315.435
  O     1289.610     356.559    1316.119
  N     1288.615     354.690    1315.281
  C     1287.704     354.187    1314.515
  N     1287.649     352.830    1314.417
  C     1286.723     355.014    1313.770
  C     1286.810     356.336    1313.929
  O     1286.259     359.011    1309.103
  O     1284.113     359.777    1310.309
  H     1289.474     360.421    1315.498
  H     1285.712     358.227    1308.984
  H     1285.979     354.547    1313.129
  H     1286.146     357.018    1313.421
  H     1287.863     358.526    1316.019
  H     1289.957     358.058    1314.074
  H     1288.760     359.122    1312.302
  H     1287.569     361.003    1314.405
  H     1288.342     352.291    1314.932
  H     1285.614     361.000    1312.891
  H     1286.988     352.324    1313.831
  H     1287.035     361.556    1312.026
  P     1289.635     361.534    1311.546
  C     1291.356     359.749    1310.931
  O     1290.992     361.136    1310.811
  O     1289.915     363.096    1311.915
  O     1288.347     361.382    1310.773
  H     1289.806     363.634    1311.127
  H     1292.188     359.567    1310.220
  H     1290.543     359.104    1310.676
  H     1291.744     359.557    1311.943
  H     1285.465     363.424    1309.481
  H     1284.855     362.628    1310.912
  H     1284.156     362.274    1309.350

 3  4  5  6  7  8  9  10  11  12  13  21  23  27  28  29  30  32 0
 6-311+G(2d,p)
 ****
 34  35 0
 6-311+G(2d,p)
 ****
 1  2  14  15  16  17  18  19  20  22  24  25  26 0
 3-21G
 ****
 31  33  36  37  38  39  40  41  42  43  44  45  46 0
 3-21G
 ****


