%nproc=1
%NoSave
%Mem=1900MB
#P OB98/GEN NMR

erre ene a

0 1
  C     -114.026      34.092     -82.565
  O     -114.638      32.972     -83.182
  P     -116.208      32.750     -82.932
  C     -117.679      31.983     -80.933
  O     -116.388      32.369     -81.383
  C     -117.950      32.521     -79.526
  O     -118.048      33.972     -79.589
  C     -119.246      32.002     -78.883
  O     -118.989      31.882     -77.479
  C     -120.219      33.132     -79.170
  O     -121.387      33.105     -78.370
  C     -119.303      34.337     -78.971
  N     -121.721      38.737     -78.012
  C     -121.270      37.761     -77.192
  N     -120.627      36.620     -77.520
  C     -120.451      36.540     -78.850
  C     -120.873      37.445     -79.810
  C     -121.537      38.592     -79.344
  N     -122.004      39.582     -80.184
  N     -120.537      37.011     -81.076
  C     -119.926      35.860     -80.885
  N     -119.831      35.546     -79.557
  O     -116.502      31.369     -83.685
  O     -117.089      33.856     -83.425
  H     -122.025      33.774     -78.689
  H     -117.367      31.389     -84.134
  H     -121.449      37.916     -76.132
  H     -119.547      35.216     -81.666
  H     -119.109      34.533     -77.910
  H     -120.545      33.063     -80.215
  H     -119.564      31.030     -79.273
  H     -117.088      32.280     -78.892
  H     -117.740      30.891     -80.899
  H     -122.637      40.255     -79.775
  H     -122.047      39.367     -81.173
  H     -118.434      32.340     -81.643
  P     -119.945      30.944     -76.593
  C     -121.834      31.504     -74.944
  O     -121.080      31.946     -76.056
  O     -119.045      30.743     -75.285
  O     -120.397      29.679     -77.239
  H     -118.723      31.594     -74.937
  H     -122.494      32.315     -74.625
  H     -121.170      31.241     -74.115
  H     -122.444      30.642     -75.226
  H     -112.986      34.114     -82.817
  H     -114.134      34.018     -81.503
  H     -114.496      34.990     -82.909

 3  4  5  6  7  8  9  10  11  12  22  25  29  30  31  32 0
 6-311+G(2d,p)
 ****
 33  36  37 0
 6-311+G(2d,p)
 ****
 1  2  13  14  15  16  17  18  19  20  21  23  24  26 0
 3-21G
 ****
 27  28  34  35  38  39  40  41  42  43  44  45  46  47  48 0
 3-21G
 ****


