%nproc=1
%NoSave
%Mem=1900MB
#P OB98/GEN NMR

erre ene a

0 1
  C     -302.976    -328.177    -101.322
  O     -302.461    -328.777    -102.498
  P     -301.018    -328.381    -103.076
  C     -302.077    -327.552    -105.270
  O     -301.278    -327.209    -104.144
  C     -301.225    -327.718    -106.529
  O     -302.014    -328.338    -107.578
  C     -300.651    -326.404    -107.094
  O     -299.376    -326.728    -107.653
  C     -301.643    -326.067    -108.189
  O     -301.116    -325.146    -109.142
  C     -301.968    -327.465    -108.731
  N     -303.218    -327.490    -109.486
  C     -303.163    -328.033    -110.779
  O     -302.084    -328.397    -111.250
  N     -304.317    -328.106    -111.513
  C     -305.409    -327.573    -111.053
  N     -306.526    -327.680    -111.830
  C     -305.486    -326.876    -109.750
  C     -304.360    -326.880    -109.020
  O     -300.198    -329.519    -103.582
  O     -300.331    -327.589    -101.863
  H     -300.297    -325.534    -109.523
  H     -300.006    -328.223    -101.173
  H     -306.396    -326.404    -109.431
  H     -304.320    -326.396    -108.060
  H     -301.161    -327.826    -109.382
  H     -302.544    -325.612    -107.749
  H     -300.557    -325.613    -106.344
  H     -300.402    -328.410    -106.291
  H     -306.436    -328.183    -112.702
  H     -302.797    -326.743    -105.433
  H     -307.438    -327.379    -111.520
  H     -302.644    -328.469    -105.061
  P     -298.019    -326.151    -107.022
  C     -297.894    -324.327    -108.815
  O     -297.931    -324.606    -107.427
  O     -296.788    -326.951    -107.319
  O     -298.309    -326.102    -105.442
  H     -297.460    -326.013    -104.959
  H     -298.118    -323.264    -108.973
  H     -298.629    -324.931    -109.355
  H     -296.894    -324.540    -109.206
  H     -303.945    -328.579    -101.112
  H     -303.052    -327.119    -101.465
  H     -302.320    -328.380    -100.501

 3  4  5  6  7  8  9  10  11  12  13  23  27  28  29  30  32 0
 6-311+G(2d,p)
 ****
 34  35 0
 6-311+G(2d,p)
 ****
 1  2  14  15  16  17  18  19  20  21  22  24  25  26 0
 3-21G
 ****
 31  33  36  37  38  39  40  41  42  43  44  45  46 0
 3-21G
 ****


