%nproc=1
%NoSave
%Mem=1900MB
#P OB98/GEN NMR

erre ene a

0 1
  C     -494.962     246.099    -170.255
  O     -494.571     246.649    -171.495
  H     -496.032     245.874    -170.293
  H     -494.783     246.824    -169.455
  H     -494.416     245.174    -170.042
  P     -493.013     246.770    -171.831
  C     -491.108     245.152    -172.480
  O     -492.496     245.301    -172.222
  C     -490.847     245.001    -173.984
  O     -491.600     243.863    -174.481
  C     -491.336     246.232    -174.762
  O     -490.593     246.429    -175.963
  C     -492.763     245.856    -175.122
  O     -493.262     246.570    -176.253
  C     -492.637     244.352    -175.354
  N     -496.292     241.383    -177.306
  C     -495.295     242.085    -177.958
  N     -495.264     241.979    -179.310
  N     -494.421     242.838    -177.345
  C     -494.611     242.911    -176.007
  C     -495.580     242.279    -175.249
  C     -496.515     241.420    -175.935
  O     -497.433     240.795    -175.409
  N     -495.458     242.603    -173.917
  C     -494.433     243.424    -173.868
  N     -493.867     243.627    -175.106
  O     -492.335     247.005    -170.397
  O     -492.639     247.855    -172.799
  H     -493.118     247.517    -176.087
  H     -491.464     247.434    -170.500
  H     -496.923     240.794    -177.820
  H     -494.048     243.890    -172.970
  H     -492.330     244.142    -176.384
  H     -493.404     246.104    -174.275
  H     -496.032     241.569    -179.824
  H     -491.303     247.139    -174.171
  H     -494.763     242.713    -179.810
  H     -489.787     244.786    -174.165
  H     -490.776     244.262    -171.940
  H     -490.551     246.002    -172.071
  P     -489.600     247.687    -176.049
  C     -488.511     248.635    -173.826
  O     -488.565     247.641    -174.830
  O     -490.533     248.935    -175.712
  O     -488.912     247.840    -177.372
  H     -490.601     249.528    -176.484
  H     -487.744     248.389    -173.122
  H     -489.454     248.685    -173.323
  H     -488.294     249.583    -174.273

 6  7  8  9  10  11  12  13  14  15  26  29  33  34 0
 6-311+G(2d,p)
 ****
 36  38  39  40  41 0
 6-311+G(2d,p)
 ****
 1  2  3  4  5  16  17  18  19  20  21  22  23  24  25 0
 3-21G
 ****
 27  28  30  31  32  35  37  42  43  44  45  46  47 0
 3-21G
 ****
 48  49 0
 3-21G
 ****


