%nproc=1
%NoSave
%Mem=1900MB
#P OB98/GEN NMR

erre ene a

0 1
  C     -224.024     -70.710      57.933
  O     -223.092     -70.040      58.791
  P     -223.188     -70.129      60.390
  C     -220.968     -71.396      60.706
  O     -222.380     -71.425      60.883
  C     -220.323     -72.733      61.082
  O     -220.493     -73.701      60.027
  C     -218.821     -72.659      61.345
  O     -218.566     -72.138      62.638
  C     -218.412     -74.116      61.147
  O     -218.692     -74.885      62.330
  C     -219.329     -74.549      59.998
  N     -215.765     -76.644      56.988
  C     -216.199     -76.959      58.227
  N     -217.153     -76.350      58.967
  C     -217.691     -75.323      58.286
  C     -217.349     -74.880      57.018
  C     -216.330     -75.587      56.356
  N     -215.880     -75.255      55.101
  N     -218.103     -73.783      56.664
  C     -218.903     -73.577      57.692
  N     -218.690     -74.482      58.696
  O     -224.578     -70.032      60.928
  O     -222.291     -68.911      60.919
  H     -218.460     -75.810      62.138
  H     -222.621     -68.612      61.787
  H     -215.718     -77.818      58.689
  H     -219.647     -72.795      57.754
  H     -219.691     -75.577      60.133
  H     -217.346     -74.231      60.928
  H     -218.338     -72.038      60.583
  H     -220.847     -73.122      61.966
  H     -220.557     -70.600      61.338
  H     -215.124     -75.794      54.707
  H     -216.264     -74.442      54.641
  H     -220.753     -71.159      59.657
  P     -218.030     -70.638      62.806
  C     -219.831     -69.944      64.498
  O     -219.290     -69.730      63.206
  O     -217.205     -70.115      61.680
  O     -217.189     -70.690      64.169
  H     -216.475     -70.026      64.132
  H     -220.472     -70.829      64.483
  H     -220.432     -69.073      64.774
  H     -219.037     -70.079      65.237
  H     -223.773     -70.514      56.912
  H     -225.013     -70.352      58.132
  H     -223.983     -71.764      58.115

 3  4  5  6  7  8  9  10  11  12  22  25  29  30  31  32 0
 6-311+G(2d,p)
 ****
 33  36  37 0
 6-311+G(2d,p)
 ****
 1  2  13  14  15  16  17  18  19  20  21  23  24  26 0
 3-21G
 ****
 27  28  34  35  38  39  40  41  42  43  44  45  46  47  48 0
 3-21G
 ****


