%nproc=1
%NoSave
%Mem=1900MB
#P OB98/GEN NMR

erre ene a

0 1
  C     -107.977     403.490     -50.373
  O     -109.011     404.396     -50.753
  P     -109.269     405.814     -50.071
  C     -108.957     407.253     -52.241
  O     -109.816     406.819     -51.192
  C     -109.721     407.655     -53.515
  O     -110.162     406.462     -54.215
  C     -110.985     408.441     -53.155
  O     -110.911     409.829     -52.898
  C     -111.993     408.060     -54.236
  O     -112.009     408.989     -55.322
  C     -111.498     406.691     -54.709
  N     -115.832     404.115     -55.570
  C     -115.351     405.242     -56.207
  N     -116.140     405.789     -57.153
  N     -114.203     405.797     -55.915
  C     -113.551     405.202     -54.892
  C     -113.942     404.094     -54.173
  C     -115.187     403.454     -54.537
  O     -115.657     402.446     -54.018
  N     -113.038     403.792     -53.185
  C     -112.121     404.730     -53.284
  N     -112.382     405.605     -54.315
  O     -108.181     406.313     -49.184
  O     -110.567     405.548     -49.144
  H     -111.231     408.809     -55.879
  H     -110.477     406.126     -48.357
  H     -116.713     403.716     -55.850
  H     -111.242     404.818     -52.655
  H     -111.431     406.652     -55.806
  H     -113.010     408.048     -53.823
  H     -117.083     405.483     -57.338
  H     -111.379     408.005     -52.226
  H     -115.889     406.731     -57.461
  H     -109.068     408.188     -54.208
  H     -108.274     406.424     -52.451
  H     -108.342     408.085     -51.900
  P     -112.087     410.751     -52.322
  C     -111.034     411.050     -50.007
  O     -111.465     411.694     -51.190
  O     -112.989     409.738     -51.469
  O     -112.903     411.458     -53.354
  H     -113.866     410.131     -51.291
  H     -110.924     411.793     -49.213
  H     -110.060     410.573     -50.185
  H     -111.755     410.295     -49.686
  H     -108.025     402.616     -50.988
  H     -108.105     403.212     -49.348
  H     -107.025     403.962     -50.498

 3  4  5  6  7  8  9  10  11  12  23  26  30  31 0
 6-311+G(2d,p)
 ****
 33  35  36  37  38 0
 6-311+G(2d,p)
 ****
 1  2  13  14  15  16  17  18  19  20  21  22  24  25 0
 3-21G
 ****
 27  28  29  32  34  39  40  41  42  43  44  45  46  47  48  49 0
 3-21G
 ****


