%nproc=1
%NoSave
%Mem=1900MB
#P OB98/GEN NMR

erre ene a

0 1
  C      335.684    -371.135      71.101
  O      335.026    -371.656      69.969
  H      335.313    -371.652      71.990
  H      335.460    -370.070      71.196
  H      336.766    -371.279      71.038
  P      335.677    -371.424      68.526
  C      334.622    -373.259      67.046
  O      334.611    -371.887      67.416
  C      333.434    -373.617      66.155
  O      332.225    -373.644      66.942
  C      333.210    -372.591      65.038
  O      333.963    -372.830      63.862
  C      331.714    -372.738      64.773
  O      331.451    -373.760      63.800
  C      331.147    -373.138      66.136
  N      327.200    -371.572      68.986
  C      327.386    -372.791      68.360
  N      326.380    -373.681      68.481
  N      328.461    -373.084      67.669
  C      329.333    -372.062      67.556
  C      329.244    -370.805      68.112
  C      328.092    -370.508      68.935
  O      327.888    -369.456      69.522
  N      330.308    -370.012      67.743
  C      330.984    -370.762      66.894
  N      330.476    -372.040      66.812
  O      336.792    -372.575      68.430
  O      336.290    -370.075      68.303
  H      331.750    -373.430      62.926
  H      337.538    -372.263      67.887
  H      326.371    -371.411      69.527
  H      331.871    -370.448      66.351
  H      330.413    -373.949      66.044
  H      331.297    -371.808      64.371
  H      325.500    -373.474      68.926
  H      333.395    -371.576      65.402
  H      326.395    -374.510      67.881
  H      333.577    -374.627      65.748
  H      334.578    -373.830      67.977
  H      335.562    -373.512      66.549
  P      334.532    -371.620      62.984
  C      336.201    -373.074      61.577
  O      335.088    -372.207      61.613
  O      335.857    -371.202      63.778
  O      333.600    -370.466      62.806
  H      335.689    -370.426      64.347
  H      336.407    -373.349      60.563
  H      335.987    -373.953      62.148
  H      337.053    -372.578      61.992

 6  7  8  9  10  11  12  13  14  15  26  29  33  34 0
 6-311+G(2d,p)
 ****
 36  38  39  40  41 0
 6-311+G(2d,p)
 ****
 1  2  3  4  5  16  17  18  19  20  21  22  23  24  25 0
 3-21G
 ****
 27  28  30  31  32  35  37  42  43  44  45  46  47 0
 3-21G
 ****
 48  49 0
 3-21G
 ****


