%nproc=1
%NoSave
%Mem=1900MB
#P OB98/GEN NMR

erre ene a

0 1
  C     1165.379    -345.331    -891.376
  O     1164.296    -345.965    -892.016
  H     1164.991    -344.668    -890.606
  H     1165.962    -344.728    -892.106
  H     1166.029    -346.070    -890.896
  P     1164.609    -346.912    -893.286
  C     1163.640    -345.290    -895.046
  O     1164.785    -345.950    -894.546
  C     1163.678    -345.204    -896.586
  O     1163.928    -346.538    -897.116
  C     1162.362    -344.703    -897.216
  O     1162.692    -344.024    -898.426
  C     1161.633    -346.012    -897.496
  O     1160.562    -345.808    -898.366
  C     1162.821    -346.858    -897.996
  N     1162.519    -348.280    -898.006
  C     1161.724    -348.744    -899.056
  O     1161.308    -347.949    -899.916
  N     1161.389    -350.078    -899.106
  C     1161.765    -350.880    -898.136
  N     1161.391    -352.165    -898.236
  C     1162.555    -350.419    -896.966
  C     1162.891    -349.132    -896.956
  O     1163.654    -348.060    -893.496
  O     1166.103    -347.437    -892.996
  H     1160.877    -345.437    -899.226
  H     1166.071    -348.378    -892.706
  H     1162.822    -351.106    -896.176
  H     1163.474    -348.696    -896.156
  H     1163.117    -346.574    -898.996
  H     1161.230    -346.427    -896.586
  H     1161.805    -344.025    -896.536
  H     1164.524    -344.570    -896.876
  H     1160.838    -352.444    -899.036
  H     1163.633    -344.279    -894.616
  H     1161.601    -352.869    -897.536
  H     1162.720    -345.808    -894.726
  P     1163.156    -342.491    -898.476
  C     1160.801    -341.603    -899.016
  O     1161.896    -341.537    -898.136
  O     1163.888    -342.114    -899.726
  O     1164.131    -342.312    -897.196
  H     1164.799    -341.636    -897.406
  H     1160.037    -340.930    -898.686
  H     1160.415    -342.601    -899.031
  H     1161.117    -341.328    -900.000

 6  7  8  9  10  11  12  13  14  15  16  26  30  31  32  33  35 0
 6-311+G(2d,p)
 ****
 37  38 0
 6-311+G(2d,p)
 ****
 1  2  3  4  5  17  18  19  20  21  22  23  24  25 0
 3-21G
 ****
 27  28  29  34  36  39  40  41  42  43  44  45  46 0
 3-21G
 ****


