%nproc=1
%NoSave
%Mem=1900MB
#P OB98/GEN NMR

erre ene a

0 1
  C     -563.377     156.637    -757.212
  O     -564.034     157.575    -758.057
  P     -563.572     159.105    -757.925
  C     -561.926     158.889    -759.922
  O     -562.095     159.224    -758.547
  C     -560.439     158.926    -760.295
  O     -559.646     158.031    -759.503
  C     -560.177     158.534    -761.744
  O     -560.457     159.636    -762.607
  C     -558.701     158.168    -761.707
  O     -557.868     159.340    -761.830
  C     -558.537     157.550    -760.307
  N     -555.608     153.429    -759.905
  C     -555.256     154.760    -760.040
  N     -553.934     155.034    -760.041
  N     -556.121     155.727    -760.161
  C     -557.406     155.311    -760.139
  C     -557.879     154.027    -759.980
  C     -556.909     152.960    -759.853
  O     -557.173     151.771    -759.716
  N     -559.252     153.995    -759.956
  C     -559.605     155.247    -760.220
  N     -558.527     156.090    -760.274
  O     -563.343     159.288    -756.345
  O     -564.572     160.078    -758.448
  H     -557.924     159.857    -761.009
  H     -564.034     159.859    -755.978
  H     -554.902     152.728    -759.831
  H     -560.616     155.589    -760.349
  H     -557.621     157.871    -759.821
  H     -558.427     157.502    -762.528
  H     -553.215     154.335    -759.952
  H     -560.774     157.662    -762.018
  H     -553.656     156.006    -760.132
  H     -560.080     159.953    -760.124
  H     -562.477     159.590    -760.553
  H     -562.341     157.896    -760.095
  P     -561.765     159.550    -763.528
  C     -563.023     161.453    -762.294
  O     -562.997     160.088    -762.669
  O     -562.024     157.969    -763.637
  O     -561.606     160.163    -764.880
  H     -562.239     157.738    -764.561
  H     -564.067     161.768    -762.202
  H     -562.518     162.078    -763.027
  H     -562.531     161.567    -761.323
  H     -563.770     155.658    -757.392
  H     -563.540     156.904    -756.189
  H     -562.327     156.644    -757.420

 3  4  5  6  7  8  9  10  11  12  23  26  30  31 0
 6-311+G(2d,p)
 ****
 33  35  36  37  38 0
 6-311+G(2d,p)
 ****
 1  2  13  14  15  16  17  18  19  20  21  22  24  25 0
 3-21G
 ****
 27  28  29  32  34  39  40  41  42  43  44  45  46  47  48  49 0
 3-21G
 ****


