%nproc=1
%NoSave
%Mem=1900MB
#P OB98/GEN NMR

erre ene a

0 1
  C      732.023     -20.269     417.825
  O      732.482     -21.596     417.646
  P      733.959     -21.874     417.072
  C      733.377     -21.007     414.720
  O      734.220     -20.853     415.858
  C      734.176     -20.777     413.434
  O      734.841     -19.499     413.472
  C      735.290     -21.797     413.192
  O      734.778     -23.059     412.796
  C      736.121     -21.065     412.131
  O      735.540     -21.223     410.839
  C      736.000     -19.599     412.612
  N      737.206     -19.146     413.281
  C      738.090     -18.378     412.507
  O      737.877     -18.198     411.309
  N      739.202     -17.849     413.115
  C      739.479     -18.158     414.354
  N      740.568     -17.562     414.917
  C      738.657     -19.091     415.146
  C      737.537     -19.535     414.564
  O      734.262     -23.302     416.772
  O      734.921     -21.311     418.215
  H      735.594     -21.989     418.427
  H      736.212     -20.959     410.187
  H      738.965     -19.371     416.146
  H      736.855     -20.196     415.083
  H      735.798     -18.955     411.754
  H      737.141     -21.460     412.093
  H      735.880     -21.914     414.101
  H      733.468     -20.781     412.590
  H      741.084     -16.910     414.348
  H      732.556     -20.294     414.782
  H      740.678     -17.470     415.918
  H      732.949     -22.023     414.720
  P      735.269     -24.340     413.627
  C      737.595     -24.653     412.525
  O      736.867     -24.280     413.692
  O      734.960     -25.560     412.639
  O      734.575     -24.509     414.951
  H      734.668     -26.332     413.162
  H      738.604     -24.234     412.592
  H      737.126     -24.256     411.623
  H      737.653     -25.744     412.468
  H      731.026     -20.286     418.212
  H      732.032     -19.759     416.885
  H      732.665     -19.759     418.513

 3  4  5  6  7  8  9  10  11  12  13  24  27  28  29  30  32 0
 6-311+G(2d,p)
 ****
 34  35 0
 6-311+G(2d,p)
 ****
 1  2  14  15  16  17  18  19  20  21  22  23  25  26 0
 3-21G
 ****
 31  33  36  37  38  39  40  41  42  43  44  45  46 0
 3-21G
 ****


