%nproc=1
%NoSave
%Mem=1900MB
#P OB98/GEN NMR

erre ene a

0 1
  C     -173.703     254.856     -35.583
  O     -172.952     253.750     -35.125
  H     -174.702     254.808     -35.145
  H     -173.794     254.817     -36.671
  H     -173.230     255.795     -35.281
  P     -171.383     253.740     -35.452
  C     -170.860     255.342     -33.473
  O     -170.628     254.077     -34.075
  C     -169.929     255.528     -32.275
  O     -169.996     256.919     -31.849
  C     -170.291     254.658     -31.062
  O     -169.079     254.255     -30.419
  C     -171.036     255.625     -30.159
  O     -171.031     255.251     -28.788
  C     -170.273     256.924     -30.433
  N     -171.032     258.113     -30.052
  C     -171.147     258.387     -28.692
  O     -170.588     257.755     -27.799
  N     -171.953     259.452     -28.372
  C     -172.650     260.227     -29.249
  O     -173.369     261.153     -28.898
  C     -172.495     259.882     -30.669
  C     -171.708     258.856     -30.999
  O     -171.188     255.070     -36.318
  O     -170.882     252.521     -36.152
  H     -171.313     254.881     -37.267
  H     -170.111     255.016     -28.552
  H     -172.047     259.663     -27.392
  H     -173.043     260.468     -31.394
  H     -171.589     258.561     -32.036
  H     -169.310     256.918     -29.912
  H     -172.079     255.709     -30.483
  H     -170.892     253.778     -31.306
  H     -168.898     255.341     -32.597
  H     -171.897     255.396     -33.129
  H     -170.692     256.130     -34.214
  P     -168.766     252.682     -30.357
  C     -167.132     252.114     -32.325
  O     -167.295     252.511     -30.971
  O     -169.741     252.129     -31.497
  O     -168.978     252.097     -29.001
  H     -169.834     252.740     -32.247
  H     -166.089     252.053     -32.556
  H     -167.598     252.833     -32.966
  H     -167.587     251.157     -32.473

 6  7  8  9  10  11  12  13  14  15  16  27  31  32  33  34  35 0
 6-311+G(2d,p)
 ****
 36  37 0
 6-311+G(2d,p)
 ****
 1  2  3  4  5  17  18  19  20  21  22  23  24  25 0
 3-21G
 ****
 26  28  29  30  38  39  40  41  42  43  44  45 0
 3-21G
 ****


