%nproc=1
%NoSave
%Mem=1900MB
#P OB98/GEN NMR

erre ene a

0 1
  C      329.371     111.877    -260.839
  O      329.215     112.086    -262.230
  P      327.939     112.894    -262.813
  C      327.257     110.732    -264.088
  O      326.861     111.749    -263.163
  C      326.097     109.792    -264.332
  O      325.831     109.016    -263.136
  C      324.774     110.459    -264.707
  O      324.782     110.917    -266.044
  C      323.788     109.346    -264.384
  O      323.743     108.388    -265.445
  C      324.408     108.702    -263.127
  N      323.778     109.165    -261.884
  C      323.832     108.280    -260.798
  O      324.362     107.177    -260.892
  N      323.276     108.684    -259.594
  C      322.719     109.851    -259.513
  N      322.253     110.216    -258.277
  C      322.591     110.789    -260.640
  C      323.146     110.390    -261.789
  O      328.250     113.818    -263.926
  O      327.298     113.591    -261.529
  H      323.049     107.738    -265.211
  H      327.671     114.492    -261.333
  H      322.110     111.742    -260.501
  H      323.121     111.025    -262.649
  H      324.330     107.622    -263.184
  H      322.765     109.721    -264.217
  H      324.603     111.318    -264.046
  H      326.379     109.078    -265.128
  H      322.507     109.614    -257.496
  H      328.100     110.172    -263.653
  H      322.068     111.186    -258.049
  H      327.599     111.218    -265.020
  P      323.645     111.954    -266.494
  C      322.630     110.151    -268.072
  O      322.416     111.051    -267.008
  O      324.252     112.603    -267.814
  O      323.311     112.983    -265.465
  H      324.619     113.474    -267.629
  H      321.786     109.476    -268.146
  H      323.558     109.567    -267.905
  H      322.707     110.727    -269.014
  H      330.271     111.327    -260.660
  H      328.534     111.324    -260.465
  H      329.426     112.822    -260.340

 3  4  5  6  7  8  9  10  11  12  13  23  27  28  29  30  32 0
 6-311+G(2d,p)
 ****
 34  35 0
 6-311+G(2d,p)
 ****
 1  2  14  15  16  17  18  19  20  21  22  24  25  26 0
 3-21G
 ****
 31  33  36  37  38  39  40  41  42  43  44  45  46 0
 3-21G
 ****


