%nproc=1
%NoSave
%Mem=1900MB
#P OB98/GEN NMR

erre ene a

0 1
  C      290.249     515.699      50.082
  O      291.296     516.063      49.203
  H      290.371     516.249      51.018
  H      290.296     514.626      50.292
  H      289.278     515.952      49.645
  P      291.204     515.503      47.700
  C      290.515     517.889      46.846
  O      290.222     516.506      46.924
  C      289.285     518.677      46.391
  O      288.203     518.432      47.327
  C      289.510     520.188      46.327
  O      288.761     520.708      45.225
  C      288.908     520.691      47.627
  O      288.537     522.064      47.553
  C      287.739     519.707      47.813
  N      287.296     519.626      49.203
  C      286.730     520.780      49.751
  O      286.637     521.808      49.076
  N      286.322     520.764      51.059
  C      286.523     519.708      51.782
  N      286.117     519.764      53.080
  C      287.157     518.479      51.259
  C      287.504     518.505      49.974
  O      290.322     514.183      47.898
  O      292.525     515.272      47.047
  H      287.988     522.278      48.341
  H      289.555     514.312      48.478
  H      287.309     517.627      51.904
  H      287.969     517.643      49.504
  H      286.883     520.006      47.194
  H      289.629     520.578      48.443
  H      290.563     520.456      46.216
  H      288.962     518.284      45.421
  H      285.709     520.630      53.404
  H      291.338     518.064      46.146
  H      286.272     519.022      53.748
  H      290.836     518.224      47.836
  P      289.514     521.071      43.862
  C      288.075     519.429      42.473
  O      289.387     519.842      42.841
  O      290.886     521.639      44.007
  O      288.532     522.164      43.199
  H      289.087     522.862      42.806
  H      288.138     518.606      41.792
  H      287.564     520.243      42.003
  H      287.537     519.128      43.348

 6  7  8  9  10  11  12  13  14  15  16  26  30  31  32  33  35 0
 6-311+G(2d,p)
 ****
 37  38 0
 6-311+G(2d,p)
 ****
 1  2  3  4  5  17  18  19  20  21  22  23  24  25 0
 3-21G
 ****
 27  28  29  34  36  39  40  41  42  43  44  45  46 0
 3-21G
 ****


