%nproc=1
%NoSave
%Mem=1900MB
#P OB98/GEN NMR

erre ene a

0 1
  C     -844.659     280.103    1343.215
  O     -844.752     278.711    1342.986
  P     -845.785     277.864    1343.873
  C     -847.320     277.157    1341.837
  O     -846.438     276.763    1342.886
  C     -847.796     275.926    1341.072
  O     -846.735     275.414    1340.243
  C     -848.241     274.770    1341.948
  O     -849.544     274.996    1342.507
  C     -848.172     273.605    1340.954
  O     -849.347     273.579    1340.130
  C     -846.940     273.971    1340.126
  N     -845.738     273.236    1340.517
  C     -845.597     271.959    1340.019
  O     -846.429     271.431    1339.275
  N     -844.473     271.271    1340.406
  C     -843.530     271.703    1341.287
  O     -842.558     271.039    1341.642
  C     -843.734     273.071    1341.819
  C     -844.814     273.764    1341.431
  O     -846.947     278.938    1344.099
  O     -845.176     277.310    1345.116
  H     -846.985     279.595    1343.379
  H     -849.308     272.752    1339.608
  H     -844.343     270.351    1340.030
  H     -842.999     273.454    1342.507
  H     -844.980     274.777    1341.808
  H     -847.106     273.766    1339.070
  H     -848.108     272.633    1341.465
  H     -847.509     274.606    1342.760
  H     -848.622     276.255    1340.400
  H     -846.768     277.834    1341.151
  H     -848.159     277.704    1342.271
  P     -849.761     274.488    1344.026
  C     -849.042     276.763    1345.101
  O     -850.041     275.810    1344.893
  O     -848.256     274.075    1344.434
  O     -850.773     273.396    1344.157
  H     -847.595     274.696    1344.123
  H     -849.493     277.725    1345.372
  H     -848.441     276.930    1344.200
  H     -848.382     276.424    1345.934
  H     -843.934     280.526    1342.552
  H     -844.362     280.279    1344.228
  H     -845.611     280.558    1343.039

 3  4  5  6  7  8  9  10  11  12  13  24  28  29  30  31  32 0
 6-311+G(2d,p)
 ****
 33  34 0
 6-311+G(2d,p)
 ****
 1  2  14  15  16  17  18  19  20  21  22  23  25  26  27 0
 3-21G
 ****
 35  36  37  38  39  40  41  42  43  44  45 0
 3-21G
 ****


