%nproc=1
%NoSave
%Mem=1900MB
#P OB98/GEN NMR

erre ene a

0 1
  C       76.892      46.371    -139.986
  O       76.621      46.915    -141.261
  H       76.034      46.557    -139.332
  H       77.771      46.857    -139.551
  H       77.058      45.292    -140.045
  P       77.594      46.551    -142.484
  C       79.331      48.443    -142.236
  O       79.061      47.059    -142.069
  C       80.833      48.683    -142.430
  O       81.508      48.454    -141.153
  C       81.489      47.746    -143.469
  O       82.556      48.479    -144.086
  C       82.030      46.648    -142.570
  O       82.950      45.829    -143.240
  C       82.555      47.495    -141.407
  N       82.867      46.715    -140.213
  C       84.051      45.981    -140.219
  O       84.845      45.969    -141.155
  N       84.289      45.232    -139.095
  C       83.482      45.145    -137.997
  O       83.759      44.477    -137.007
  C       82.232      45.923    -138.062
  C       81.984      46.662    -139.149
  O       77.132      46.988    -143.833
  O       77.731      44.956    -142.394
  H       77.114      44.540    -143.027
  H       83.612      46.373    -143.716
  H       85.143      44.693    -139.082
  H       81.558      45.862    -137.218
  H       81.074      47.248    -139.235
  H       83.443      48.060    -141.708
  H       81.214      45.997    -142.236
  H       80.788      47.401    -144.234
  H       80.993      49.737    -142.690
  H       78.983      48.971    -141.340
  H       78.778      48.818    -143.107
  P       82.392      49.274    -145.475
  C       82.586      47.241    -147.050
  O       81.758      48.293    -146.578
  O       83.649      49.945    -145.933
  O       81.238      50.357    -145.214
  H       81.446      51.174    -145.709
  H       82.051      46.664    -147.775
  H       82.866      46.613    -146.231
  H       83.465      47.653    -147.500

 6  7  8  9  10  11  12  13  14  15  16  27  31  32  33  34  35 0
 6-311+G(2d,p)
 ****
 36  37 0
 6-311+G(2d,p)
 ****
 1  2  3  4  5  17  18  19  20  21  22  23  24  25 0
 3-21G
 ****
 26  28  29  30  38  39  40  41  42  43  44  45 0
 3-21G
 ****


