%nproc=1
%NoSave
%Mem=1900MB
#P OB98/GEN NMR

erre ene a

0 1
  C      241.300     366.729      74.327
  O      240.982     365.496      73.715
  H      242.388     366.852      74.322
  H      240.957     366.726      75.364
  H      240.850     367.565      73.787
  P      239.458     365.187      73.335
  C      239.284     363.332      75.125
  O      238.785     364.579      74.661
  C      238.128     362.364      75.388
  O      237.423     362.809      76.586
  C      237.100     362.312      74.236
  O      236.577     360.980      74.149
  C      236.030     363.259      74.742
  O      234.796     363.051      74.100
  C      236.034     362.935      76.235
  N      235.353     363.965      77.010
  C      233.964     363.958      76.982
  O      233.299     363.146      76.337
  N      233.343     364.970      77.662
  C      233.965     366.025      78.263
  O      233.358     366.948      78.790
  C      235.438     366.008      78.214
  C      236.052     364.993      77.608
  O      239.242     364.373      72.100
  O      238.771     366.630      73.244
  H      234.106     363.597      74.519
  H      237.953     366.584      72.710
  H      232.332     364.973      77.658
  H      235.961     366.843      78.670
  H      237.134     364.959      77.538
  H      235.554     361.965      76.426
  H      236.327     364.297      74.565
  H      237.516     362.614      73.273
  H      238.530     361.368      75.597
  H      239.839     363.504      76.052
  H      239.967     362.911      74.375
  P      237.390     359.797      73.425
  C      235.951     359.753      71.299
  O      237.261     359.922      71.825
  O      237.083     358.434      73.957
  O      238.928     360.153      73.698
  H      239.398     359.345      73.984
  H      235.978     359.855      70.234
  H      235.302     360.497      71.712
  H      235.587     358.780      71.555

 6  7  8  9  10  11  12  13  14  15  16  26  31  32  33  34  35 0
 6-311+G(2d,p)
 ****
 36  37 0
 6-311+G(2d,p)
 ****
 1  2  3  4  5  17  18  19  20  21  22  23  24  25 0
 3-21G
 ****
 27  28  29  30  38  39  40  41  42  43  44  45 0
 3-21G
 ****


