%nproc=1
%NoSave
%Mem=1900MB
#P OB98/GEN NMR

erre ene a

0 1
  C     1082.979     452.863    1423.398
  O     1084.046     451.927    1423.516
  P     1085.481     452.493    1423.947
  C     1085.849     454.190    1421.990
  O     1086.225     452.936    1422.599
  C     1087.089     454.876    1421.434
  O     1087.980     455.254    1422.511
  C     1087.933     454.025    1420.493
  O     1087.396     453.988    1419.174
  C     1089.237     454.769    1420.511
  O     1089.190     455.910    1419.637
  C     1089.347     455.225    1421.967
  N     1094.075     454.033    1423.307
  C     1093.604     455.122    1422.586
  N     1094.532     455.993    1422.135
  N     1092.338     455.357    1422.361
  C     1091.518     454.396    1422.903
  C     1091.859     453.271    1423.629
  C     1093.267     453.038    1423.847
  O     1093.751     452.058    1424.422
  N     1090.769     452.559    1423.989
  C     1089.742     453.234    1423.508
  N     1090.151     454.346    1422.793
  O     1086.291     451.183    1424.399
  O     1085.446     453.518    1425.035
  H     1089.237     455.579    1418.725
  H     1087.050     451.422    1424.927
  H     1095.065     453.901    1423.452
  H     1088.707     452.974    1423.602
  H     1089.749     456.241    1422.070
  H     1090.099     454.155    1420.167
  H     1095.523     455.828    1422.225
  H     1088.078     453.011    1420.903
  H     1094.231     456.760    1421.555
  H     1086.757     455.797    1420.909
  H     1085.377     454.819    1422.743
  H     1085.120     453.987    1421.197
  P     1086.690     452.611    1418.721
  C     1089.047     451.531    1418.665
  O     1087.828     451.759    1417.995
  O     1085.733     453.098    1417.504
  O     1085.916     451.919    1419.804
  H     1084.965     452.486    1417.418
  H     1089.584     450.734    1418.177
  H     1088.871     451.227    1419.719
  H     1089.656     452.451    1418.649
  H     1082.086     452.351    1423.106
  H     1083.228     453.596    1422.659
  H     1082.822     453.345    1424.340

 3  4  5  6  7  8  9  10  11  12  23  26  30  31 0
 6-311+G(2d,p)
 ****
 33  35  36  37  38 0
 6-311+G(2d,p)
 ****
 1  2  13  14  15  16  17  18  19  20  21  22  24  25 0
 3-21G
 ****
 27  28  29  32  34  39  40  41  42  43  44  45  46  47  48  49 0
 3-21G
 ****


