%nproc=1
%NoSave
%Mem=1900MB
#P OB98/GEN NMR

erre ene a

0 1
  C      206.243     167.565    -303.425
  O      205.484     168.615    -304.030
  P      205.865     169.116    -305.501
  C      204.692     169.547    -307.767
  O      204.539     169.184    -306.399
  C      203.354     169.409    -308.501
  O      203.009     168.019    -308.718
  C      202.184     169.979    -307.709
  O      202.138     171.384    -307.561
  C      200.991     169.311    -308.371
  O      200.592     169.999    -309.555
  C      201.569     167.919    -308.720
  N      201.109     166.871    -307.806
  C      199.834     166.370    -308.046
  O      199.097     166.792    -308.934
  N      199.413     165.381    -307.198
  C      200.113     164.883    -306.139
  O      199.680     164.010    -305.396
  C      201.446     165.470    -305.922
  C      201.875     166.421    -306.752
  O      207.030     168.436    -306.137
  O      206.195     170.675    -305.267
  H      201.404     170.242    -310.039
  H      206.976     170.898    -305.809
  H      198.496     165.000    -307.361
  H      202.028     165.102    -305.087
  H      202.855     166.865    -306.609
  H      201.277     167.627    -309.736
  H      200.120     169.289    -307.707
  H      202.242     169.579    -306.687
  H      203.445     169.882    -309.479
  H      205.448     168.913    -308.236
  H      205.073     170.573    -307.822
  P      202.440     172.130    -306.174
  C      203.449     174.476    -305.727
  O      202.520     173.707    -306.456
  O      203.486     171.541    -305.289
  O      201.017     172.006    -305.434
  H      201.175     171.929    -304.475
  H      203.353     175.522    -306.034
  H      204.469     174.144    -305.931
  H      203.242     174.408    -304.654
  H      205.853     167.359    -302.450
  H      207.267     167.866    -303.344
  H      206.177     166.684    -304.029

 3  4  5  6  7  8  9  10  11  12  13  23  28  29  30  31  32 0
 6-311+G(2d,p)
 ****
 33  34 0
 6-311+G(2d,p)
 ****
 1  2  14  15  16  17  18  19  20  21  22  24  25  26  27 0
 3-21G
 ****
 35  36  37  38  39  40  41  42  43  44  45 0
 3-21G
 ****


