%nproc=1
%NoSave
%Mem=1900MB
#P OB98/GEN NMR

erre ene a

0 1
  C     -595.406     605.406     158.480
  O     -594.977     604.294     159.251
  H     -596.498     605.446     158.502
  H     -595.080     605.309     157.439
  H     -595.009     606.328     158.903
  P     -593.436     603.851     159.140
  C     -592.821     605.482     161.051
  O     -592.590     605.107     159.697
  C     -591.506     605.629     161.818
  O     -590.653     606.604     161.181
  C     -591.675     606.127     163.248
  O     -592.326     605.229     164.109
  C     -590.265     606.593     163.579
  O     -589.421     605.520     163.993
  C     -589.789     607.152     162.205
  N     -589.770     608.611     162.180
  C     -588.594     609.196     161.741
  O     -587.589     608.553     161.404
  N     -588.583     610.562     161.714
  C     -589.583     611.373     162.128
  O     -589.510     612.606     162.102
  C     -590.796     610.700     162.619
  C     -590.842     609.365     162.620
  O     -592.991     603.362     157.791
  O     -593.269     602.767     160.303
  H     -589.891     605.041     164.697
  H     -592.436     602.241     160.189
  H     -587.735     611.002     161.386
  H     -591.620     611.320     162.968
  H     -591.715     608.846     162.980
  H     -588.780     606.789     161.982
  H     -590.260     607.335     164.382
  H     -592.303     607.034     163.221
  H     -590.992     604.667     161.794
  H     -593.430     604.690     161.516
  H     -593.385     606.426     161.074
  P     -593.123     605.680     165.412
  C     -595.485     605.020     164.486
  O     -594.637     606.044     164.994
  O     -592.417     606.606     166.355
  O     -593.327     604.268     166.178
  H     -593.284     604.451     167.133
  H     -596.446     605.432     164.261
  H     -595.591     604.248     165.219
  H     -595.055     604.610     163.596

 6  7  8  9  10  11  12  13  14  15  16  26  31  32  33  34  35 0
 6-311+G(2d,p)
 ****
 36  37 0
 6-311+G(2d,p)
 ****
 1  2  3  4  5  17  18  19  20  21  22  23  24  25 0
 3-21G
 ****
 27  28  29  30  38  39  40  41  42  43  44  45 0
 3-21G
 ****


