%nproc=1
%NoSave
%Mem=1900MB
#P OB98/GEN NMR

erre ene a

0 1
  C     -487.832    -884.681     240.122
  O     -489.247    -884.855     240.084
  P     -490.053    -884.840     241.472
  C     -491.586    -882.716     241.050
  O     -491.458    -884.102     241.266
  C     -492.534    -882.465     239.862
  O     -492.010    -883.096     238.670
  C     -493.933    -883.030     240.079
  O     -494.776    -882.089     240.774
  C     -494.396    -883.311     238.662
  O     -494.791    -882.078     238.002
  C     -493.093    -883.862     238.042
  N     -492.802    -885.302     238.188
  C     -492.525    -886.081     237.070
  O     -492.506    -885.649     235.914
  N     -492.251    -887.412     237.297
  C     -492.057    -887.990     238.520
  O     -491.762    -889.164     238.664
  C     -492.214    -887.087     239.676
  C     -492.574    -885.818     239.463
  O     -489.227    -883.826     242.382
  O     -490.201    -886.186     242.101
  H     -495.646    -881.837     238.374
  H     -488.845    -884.303     243.140
  H     -492.126    -887.991     236.491
  H     -492.015    -887.504     240.658
  H     -492.688    -885.152     240.323
  H     -493.062    -883.643     236.961
  H     -495.258    -883.964     238.640
  H     -493.896    -883.974     240.621
  H     -492.598    -881.384     239.668
  H     -490.618    -882.250     240.850
  H     -491.990    -882.245     241.956
  P     -495.646    -882.582     242.023
  C     -493.781    -881.968     243.679
  O     -495.115    -881.731     243.281
  O     -495.734    -884.058     242.217
  O     -497.095    -881.944     241.750
  H     -497.693    -882.579     241.315
  H     -493.492    -881.233     244.413
  H     -493.103    -881.912     242.816
  H     -493.704    -882.981     244.115
  H     -487.442    -884.714     239.126
  H     -487.392    -885.464     240.704
  H     -487.601    -883.734     240.564

 3  4  5  6  7  8  9  10  11  12  13  23  28  29  30  31  32 0
 6-311+G(2d,p)
 ****
 33  34 0
 6-311+G(2d,p)
 ****
 1  2  14  15  16  17  18  19  20  21  22  24  25  26  27 0
 3-21G
 ****
 35  36  37  38  39  40  41  42  43  44  45 0
 3-21G
 ****


