%nproc=1
%NoSave
%Mem=1900MB
#P OB98/GEN NMR

erre ene a

0 1
  C      -40.882     -46.363    -288.358
  O      -39.747     -45.631    -287.952
  H      -41.150     -47.059    -287.556
  H      -40.668     -46.940    -289.259
  H      -41.727     -45.691    -288.534
  P      -39.021     -44.667    -289.014
  C      -36.946     -44.861    -290.509
  O      -37.789     -45.539    -289.586
  C      -35.746     -45.722    -290.907
  O      -34.829     -45.830    -289.786
  C      -36.119     -47.145    -291.336
  O      -35.426     -47.476    -292.544
  C      -35.624     -48.012    -290.189
  O      -35.369     -49.353    -290.595
  C      -34.409     -47.206    -289.716
  N      -33.971     -47.570    -288.373
  C      -33.315     -48.799    -288.243
  O      -33.166     -49.529    -289.223
  N      -32.878     -49.189    -287.003
  C      -33.123     -48.445    -285.969
  N      -32.675     -48.893    -284.765
  C      -33.855     -47.162    -286.053
  C      -34.237     -46.785    -287.273
  O      -38.646     -43.325    -288.484
  O      -40.026     -44.608    -290.256
  H      -35.087     -49.867    -289.806
  H      -39.824     -43.810    -290.805
  H      -34.043     -46.581    -285.163
  H      -34.770     -45.856    -287.431
  H      -33.562     -47.339    -290.404
  H      -36.383     -48.036    -289.395
  H      -37.184     -47.279    -291.505
  H      -35.196     -45.199    -291.698
  H      -32.178     -49.776    -284.752
  H      -36.608     -43.923    -290.052
  H      -32.813     -48.400    -283.896
  H      -37.533     -44.632    -291.406
  P      -36.336     -47.989    -293.763
  C      -37.406     -50.239    -294.481
  O      -36.454     -49.588    -293.648
  O      -35.393     -47.766    -295.038
  O      -37.632     -47.259    -293.894
  H      -35.652     -46.950    -295.506
  H      -37.376     -51.293    -294.300
  H      -37.173     -50.046    -295.507
  H      -38.385     -49.867    -294.262

 6  7  8  9  10  11  12  13  14  15  16  26  30  31  32  33  35 0
 6-311+G(2d,p)
 ****
 37  38 0
 6-311+G(2d,p)
 ****
 1  2  3  4  5  17  18  19  20  21  22  23  24  25 0
 3-21G
 ****
 27  28  29  34  36  39  40  41  42  43  44  45  46 0
 3-21G
 ****


