%nproc=1
%NoSave
%Mem=1900MB
#P OB98/GEN NMR

erre ene a

0 1
  C     -208.435    -513.426     219.352
  O     -208.024    -513.174     220.707
  P     -208.776    -512.042     221.561
  C     -207.398    -510.116     220.456
  O     -208.681    -510.648     220.774
  C     -207.550    -508.901     219.526
  O     -208.582    -508.012     220.037
  C     -206.307    -508.031     219.420
  O     -205.331    -508.596     218.557
  C     -206.888    -506.731     218.872
  O     -207.058    -506.799     217.446
  C     -208.261    -506.677     219.584
  N     -208.292    -505.714     220.686
  C     -208.572    -504.395     220.340
  O     -208.726    -504.012     219.176
  N     -208.629    -503.504     221.384
  C     -208.375    -503.794     222.698
  O     -208.429    -502.949     223.588
  C     -208.003    -505.181     222.979
  C     -207.974    -506.069     221.981
  O     -207.763    -511.808     222.780
  O     -210.139    -512.404     222.070
  H     -207.589    -507.601     217.271
  H     -208.256    -511.508     223.555
  H     -208.854    -502.545     221.162
  H     -207.770    -505.442     224.007
  H     -207.696    -507.101     222.181
  H     -209.048    -506.415     218.868
  H     -206.254    -505.868     219.083
  H     -205.894    -507.839     220.425
  H     -207.870    -509.248     218.539
  H     -206.801    -510.875     219.936
  H     -206.880    -509.832     221.384
  P     -204.086    -509.340     219.288
  C     -202.696    -507.149     219.008
  O     -203.189    -508.154     219.867
  O     -203.287    -509.888     218.003
  O     -204.512    -510.381     220.263
  H     -203.362    -509.300     217.250
  H     -203.394    -506.932     218.195
  H     -201.726    -507.470     218.588
  H     -202.537    -506.228     219.595
  H     -207.832    -514.206     218.935
  H     -208.317    -512.535     218.772
  H     -209.462    -513.725     219.341

 3  4  5  6  7  8  9  10  11  12  13  23  28  29  30  31  32 0
 6-311+G(2d,p)
 ****
 33  34 0
 6-311+G(2d,p)
 ****
 1  2  14  15  16  17  18  19  20  21  22  24  25  26 0
 3-21G
 ****
 27  35  36  37  38  39  40  41  42  43  44  45 0
 3-21G
 ****


