%nproc=1
%NoSave
%Mem=1900MB
#P OB98/GEN NMR

erre ene a

0 1
  C     -592.413      95.038     443.780
  O     -591.435      94.047     444.047
  H     -592.345      95.810     444.551
  H     -593.409      94.594     443.812
  H     -592.242      95.508     442.800
  P     -591.131      92.999     442.865
  C     -589.133      94.302     441.829
  O     -590.468      93.843     441.669
  C     -588.248      93.741     440.723
  O     -588.636      94.275     439.451
  C     -586.754      94.067     440.892
  O     -586.110      93.155     441.765
  C     -586.277      93.883     439.451
  O     -586.141      92.477     439.169
  C     -587.435      94.479     438.649
  N     -584.294      98.143     437.056
  C     -584.041      96.813     437.304
  N     -582.780      96.391     437.082
  N     -584.942      95.961     437.699
  C     -586.170      96.521     437.895
  C     -586.544      97.839     437.697
  C     -585.532      98.755     437.228
  O     -585.706      99.958     436.987
  N     -587.866      98.039     437.989
  C     -588.291      96.854     438.382
  N     -587.301      95.898     438.349
  O     -592.594      92.646     442.316
  O     -590.398      91.766     443.282
  H     -586.089      92.385     438.204
  H     -592.857      91.775     442.665
  H     -583.563      98.763     436.748
  H     -589.298      96.628     438.700
  H     -587.578      93.959     437.687
  H     -585.289      94.336     439.281
  H     -582.022      96.998     436.804
  H     -586.602      95.112     441.189
  H     -582.572      95.412     437.247
  H     -588.402      92.653     440.689
  H     -588.760      93.966     442.807
  H     -589.132      95.401     441.798
  P     -584.794      93.645     442.536
  C     -586.182      95.213     444.077
  O     -585.110      95.103     443.141
  O     -583.777      93.952     441.336
  O     -584.224      92.661     443.503
  H     -583.044      93.290     441.348
  H     -586.277      96.231     444.393
  H     -585.979      94.594     444.926
  H     -587.093      94.897     443.614

 6  7  8  9  10  11  12  13  14  15  26  29  33  34 0
 6-311+G(2d,p)
 ****
 36  38  39  40  41 0
 6-311+G(2d,p)
 ****
 1  2  3  4  5  16  17  18  19  20  21  22  23  24  25 0
 3-21G
 ****
 27  28  30  31  32  35  37  42  43  44  45  46  47 0
 3-21G
 ****
 48  49 0
 3-21G
 ****


