%nproc=1
%NoSave
%Mem=1900MB
#P OB98/GEN NMR

erre ene a

0 1
  C       72.720    -105.439     108.519
  O       73.789    -105.435     109.472
  P       75.006    -106.444     109.177
  C       76.730    -105.076     110.557
  O       76.060    -106.318     110.385
  C       75.862    -104.057     111.298
  O       75.338    -104.664     112.505
  C       76.591    -102.776     111.720
  O       75.689    -101.668     111.587
  C       76.837    -102.986     113.203
  O       77.024    -101.755     113.898
  C       75.571    -103.749     113.587
  N       76.115    -103.313     118.597
  C       75.894    -102.337     117.645
  N       75.831    -101.064     118.091
  N       75.745    -102.588     116.371
  C       75.799    -103.909     116.073
  C       76.002    -104.970     116.928
  C       76.206    -104.674     118.328
  O       76.458    -105.489     119.213
  N       75.993    -106.167     116.251
  C       75.793    -105.828     114.994
  N       75.677    -104.470     114.835
  O       75.752    -105.761     107.937
  O       74.571    -107.834     108.854
  H       77.416    -101.972     114.764
  H       75.805    -106.391     107.192
  H       76.241    -103.064     119.562
  H       75.750    -106.516     114.161
  H       74.707    -103.078     113.654
  H       77.736    -103.598     113.341
  H       75.871    -100.809     119.065
  H       77.513    -102.575     111.165
  H       75.624    -100.340     117.414
  H       75.003    -103.813     110.661
  H       77.001    -104.672     109.578
  H       77.659    -105.255     111.111
  P       76.169    -100.468     110.636
  C       74.155    -100.375     108.992
  O       74.830     -99.785     110.088
  O       76.762    -101.225     109.356
  O       77.162     -99.550     111.265
  H       77.440    -100.673     108.922
  H       74.536    -101.373     108.763
  H       74.279     -99.739     108.113
  H       73.091    -100.452     109.231
  H       71.973    -104.733     108.818
  H       72.288    -106.417     108.472
  H       73.100    -105.170     107.556

 3  4  5  6  7  8  9  10  11  12  23  26  30  31  33  0
 6-311+G(2d,p)
 ****
 35  36  37  38 0
 6-311+G(2d,p)
 ****
 1  2  13  14  15  16  17  18  19  20  21  22  24  25  27  28  29 0
 3-21G
 ****
 32  34  39  40  41  42  43  44  45  46  47  48  49 0
 3-21G
 ****


