%nproc=1
%NoSave
%Mem=1900MB
#P OB98/GEN NMR

erre ene a

0 1
  C      221.598    -589.363     156.455
  O      221.918    -589.168     155.091
  P      221.454    -590.305     154.051
  C      221.037    -588.369     152.363
  O      221.569    -589.670     152.584
  C      220.904    -588.102     150.867
  O      219.992    -589.048     150.274
  C      220.348    -586.728     150.512
  O      221.327    -585.719     150.677
  C      219.915    -586.963     149.070
  O      221.054    -586.910     148.194
  C      219.369    -588.403     149.129
  N      214.873    -587.599     146.809
  C      216.148    -587.424     146.391
  N      217.294    -587.639     147.076
  C      217.029    -588.089     148.317
  C      215.784    -588.296     148.887
  C      214.670    -588.035     148.075
  N      213.370    -588.211     148.504
  N      215.907    -588.744     150.185
  C      217.205    -588.815     150.392
  N      217.924    -588.448     149.285
  O      219.880    -590.401     154.298
  O      222.130    -591.626     154.229
  H      220.759    -587.225     147.315
  H      219.560    -591.316     154.176
  H      216.264    -587.060     145.379
  H      217.670    -589.138     151.309
  H      219.623    -588.990     148.239
  H      219.185    -586.225     148.712
  H      219.475    -586.497     151.131
  H      221.889    -588.246     150.404
  H      221.713    -587.619     152.795
  H      212.632    -587.864     147.916
  H      213.215    -588.401     149.487
  H      220.068    -588.287     152.864
  P      220.817    -584.253     151.084
  C      223.074    -583.895     152.273
  O      222.171    -583.417     151.284
  O      220.329    -584.492     152.591
  O      219.816    -583.656     150.161
  H      220.989    -584.968     153.119
  H      223.966    -583.275     152.271
  H      223.354    -584.932     152.059
  H      222.598    -583.841     153.266
  H      221.963    -588.537     157.029
  H      222.053    -590.267     156.802
  H      220.536    -589.432     156.566

 3  4  5  6  7  8  9  10  11  12  22  25  29  30  31  32 0
 6-311+G(2d,p)
 ****
 33  36  37 0
 6-311+G(2d,p)
 ****
 1  2  13  14  15  16  17  18  19  20  21  23  24  26 0
 3-21G
 ****
 27  28  34  35  38  39  40  41  42  43  44  45  46  47  48 0
 3-21G
 ****


