%nproc=1
%NoSave
%Mem=1900MB
#P OB98/GEN NMR

erre ene a

0 1
  C      162.173      26.277    -357.534
  O      160.943      26.271    -356.835
  H      162.167      27.105    -358.246
  H      162.297      25.340    -358.084
  H      163.003      26.413    -356.837
  P      160.755      25.132    -355.720
  C      161.677      26.396    -353.641
  O      161.893      25.386    -354.618
  C      161.515      25.758    -352.266
  O      160.260      25.042    -352.200
  C      162.586      24.723    -351.940
  O      163.808      25.319    -351.537
  C      161.904      23.935    -350.832
  O      162.052      24.577    -349.559
  C      160.435      23.949    -351.270
  N      159.858      18.935    -350.489
  C      160.192      19.947    -349.658
  N      160.314      21.261    -349.940
  C      160.019      21.496    -351.230
  C      159.661      20.571    -352.194
  C      159.580      19.229    -351.781
  N      159.264      18.194    -352.634
  N      159.474      21.186    -353.416
  C      159.710      22.462    -353.192
  N      160.038      22.698    -351.886
  O      161.241      23.806    -356.473
  O      159.370      24.993    -355.183
  H      162.956      24.367    -349.250
  H      160.462      23.304    -356.784
  H      160.399      19.661    -348.630
  H      159.663      23.247    -353.939
  H      159.753      24.126    -350.428
  H      162.330      22.932    -350.750
  H      162.746      24.063    -352.798
  H      161.495      26.552    -351.511
  H      160.766      26.952    -353.891
  H      162.527      27.087    -353.650
  H      159.292      17.253    -352.283
  H      159.166      18.390    -353.623
  P      165.148      24.461    -351.708
  C      165.206      24.601    -354.314
  O      165.096      23.780    -353.160
  O      164.948      23.231    -350.703
  O      166.410      25.208    -351.424
  H      165.806      22.980    -350.307
  H      165.153      23.991    -355.192
  H      166.142      25.119    -354.296
  H      164.406      25.311    -354.324

 6  7  8  9  10  11  12  13  14  15  25  28  32  33  34  35 0
 6-311+G(2d,p)
 ****
 36  37  40 0
 6-311+G(2d,p)
 ****
 1  2  3  4  5  16  17  18  19  20  21  22  23  24 0
 3-21G
 ****
 26  27  29  30  31  38  39 41  42  43  44  45  46  47  48 0
 3-21G
 ****


