%nproc=1
%NoSave
%Mem=1900MB
#P OB98/GEN NMR

erre ene a

0 1
  C      344.967      56.244     869.625
  O      345.070      57.465     870.325
  H      345.879      55.671     869.773
  H      344.832      56.431     868.554
  H      344.120      55.650     870.010
  P      343.815      58.467     870.219
  C      344.652      60.575     868.946
  O      344.033      59.299     868.852
  C      343.951      61.572     868.014
  O      344.244      61.267     866.636
  C      342.434      61.604     868.146
  O      342.025      62.426     869.243
  C      342.028      62.182     866.791
  O      342.170      63.616     866.779
  C      343.049      61.520     865.854
  N      340.511      59.554     861.948
  C      340.857      60.870     862.212
  N      340.411      61.801     861.346
  N      341.561      61.231     863.256
  C      341.911      60.197     864.055
  C      341.638      58.854     863.888
  C      340.886      58.453     862.721
  O      340.608      57.308     862.385
  N      342.171      58.108     864.917
  C      342.725      59.003     865.714
  N      342.572      60.279     865.252
  O      344.101      59.549     871.358
  O      342.476      57.836     870.376
  H      343.030      63.854     867.161
  H      343.252      59.888     871.701
  H      339.992      59.337     861.123
  H      343.253      58.771     866.638
  H      343.332      62.187     865.030
  H      340.990      61.960     866.559
  H      339.620      61.626     860.739
  H      342.033      60.578     868.250
  H      340.639      62.762     861.543
  H      344.381      62.570     868.232
  H      345.703      60.485     868.657
  H      344.593      60.933     869.988
  P      341.067      61.774     870.338
  C      338.988      62.207     868.845
  O      339.760      61.258     869.556
  O      340.529      63.031     871.173
  O      341.726      60.759     871.232
  H      340.155      62.737     872.030
  H      338.158      61.716     868.381
  H      339.594      62.669     868.094
  H      338.628      62.953     869.522

 6  7  8  9  10  11  12  13  14  15  26  29  33  34 0
 6-311+G(2d,p)
 ****
 36  38  39  40  41 0
 6-311+G(2d,p)
 ****
 1  2  3  4  5  16  17  18  19  20  21  22  23  24  25 0
 3-21G
 ****
 27  28  30  31  32  35  37  42  43  44  45  46  47 0
 3-21G
 ****
 48  49 0
 3-21G
 ****


