%nproc=1
%NoSave
%Mem=1900MB
#P OB98/GEN NMR

erre ene a

0 1
  C      -50.603     426.599     521.651
  O      -49.883     426.926     522.822
  H      -50.764     427.513     521.073
  H      -51.577     426.176     521.914
  H      -50.046     425.887     521.038
  P      -49.372     425.744     523.772
  C      -47.179     425.249     525.041
  O      -47.794     425.960     523.971
  C      -45.911     424.554     524.547
  O      -46.264     423.428     523.707
  C      -45.022     425.443     523.693
  O      -44.306     426.376     524.484
  C      -44.165     424.395     522.998
  O      -43.083     423.965     523.839
  C      -45.178     423.254     522.771
  N      -45.666     423.216     521.390
  C      -44.934     422.444     520.502
  O      -43.930     421.805     520.810
  N      -45.357     422.480     519.192
  C      -46.327     423.299     518.696
  O      -46.502     423.478     517.498
  C      -47.113     424.047     519.690
  C      -46.743     423.983     520.979
  O      -49.779     424.367     523.368
  O      -49.964     426.128     525.211
  H      -50.748     425.579     525.388
  H      -42.706     423.183     523.397
  H      -44.804     421.955     518.531
  H      -47.941     424.656     519.346
  H      -47.284     424.542     521.728
  H      -44.716     422.277     523.006
  H      -43.733     424.792     522.074
  H      -45.626     425.970     522.946
  H      -45.368     424.169     525.422
  H      -47.891     424.495     525.412
  H      -46.960     425.948     525.853
  P      -43.485     427.563     523.791
  C      -43.386     430.134     523.891
  O      -44.024     428.960     524.376
  O      -43.419     427.487     522.294
  O      -42.022     427.462     524.426
  H      -41.362     427.464     523.712
  H      -43.827     430.995     524.349
  H      -43.507     430.193     522.830
  H      -42.344     430.098     524.129

 6  7  8  9  10  11  12  13  14  15  16  27  31  32  33  34  35 0
 6-311+G(2d,p)
 ****
 36  37 0
 6-311+G(2d,p)
 ****
 1  2  3  4  5  17  18  19  20  21  22  23  24  25 0
 3-21G
 ****
 26  28  29  30  38  39  40  41  42  43  44  45 0
 3-21G
 ****


