%nproc=1
%NoSave
%Mem=1900MB
#P OB98/GEN NMR

erre ene a

0 1
  C     -172.391    -895.940    -642.439
  O     -172.594    -894.520    -642.493
  P     -171.853    -893.680    -643.638
  C     -173.469    -894.110    -645.683
  O     -172.214    -894.290    -645.065
  C     -173.287    -893.510    -647.074
  O     -172.250    -894.210    -647.803
  C     -174.550    -893.570    -647.943
  O     -175.394    -892.450    -647.724
  C     -173.963    -893.610    -649.348
  O     -173.537    -892.290    -649.753
  C     -172.730    -894.530    -649.130
  N     -172.932    -896.000    -649.214
  C     -172.135    -896.760    -650.075
  O     -171.252    -896.290    -650.797
  N     -172.373    -898.110    -650.074
  C     -173.189    -898.800    -649.211
  O     -173.317    -900.000    -649.236
  C     -173.891    -897.960    -648.244
  C     -173.752    -896.640    -648.285
  O     -170.306    -894.060    -643.451
  O     -172.070    -892.190    -643.563
  H     -174.278    -891.680    -649.575
  H     -169.794    -893.260    -643.192
  H     -171.863    -898.670    -650.750
  H     -174.522    -898.470    -647.504
  H     -174.265    -896.010    -647.568
  H     -171.928    -894.290    -649.842
  H     -174.704    -893.930    -650.080
  H     -175.076    -894.510    -647.770
  H     -172.962    -892.460    -646.953
  H     -174.119    -893.470    -645.079
  H     -173.990    -895.090    -645.757
  P     -176.703    -892.640    -646.814
  C     -175.705    -891.430    -644.762
  O     -176.163    -892.660    -645.294
  O     -177.632    -893.740    -647.206
  O     -177.409    -891.200    -646.902
  H     -178.122    -891.200    -647.574
  H     -175.537    -891.550    -643.687
  H     -176.469    -890.630    -644.917
  H     -174.765    -891.140    -645.243
  H     -172.951    -896.350    -641.624
  H     -171.351    -896.146    -642.297
  H     -172.720    -896.382    -643.356

 3  4  5  6  7  8  9  10  11  12  13  23  28  29  30  31  32 0
 6-311+G(2d,p)
 ****
 33  34 0
 6-311+G(2d,p)
 ****
 1  2  14  15  16  17  18  19  20  21  22  24  25  26  27 0
 3-21G
 ****
 35  36  37  38  39  40  41  42  43  44  45 0
 3-21G
 ****


