%nproc=1
%NoSave
%Mem=1900MB
#P OB98/GEN NMR

erre ene a

0 1
  C       69.671     299.743     210.325
  O       68.995     300.356     211.404
  H       70.668     299.422     210.637
  H       69.101     298.863     210.010
  H       69.746     300.436     209.482
  P       69.663     301.680     212.019
  C       70.647     301.327     214.398
  O       70.830     301.169     212.997
  C       69.610     300.321     214.895
  O       69.880     299.012     214.345
  C       69.594     300.135     216.409
  O       68.862     301.156     217.064
  C       68.886     298.797     216.517
  O       67.472     298.975     216.315
  C       69.496     298.026     215.339
  N       71.107     293.717     217.592
  C       69.870     294.231     217.407
  N       69.526     295.386     216.799
  C       70.619     296.035     216.359
  C       71.936     295.640     216.487
  C       72.173     294.414     217.131
  N       73.429     293.894     217.338
  N       72.784     296.589     215.942
  C       71.984     297.520     215.472
  N       70.665     297.236     215.708
  O       68.550     302.227     213.033
  O       70.090     302.712     211.026
  H       67.093     298.080     216.200
  H       68.702     303.176     213.215
  H       69.052     293.635     217.799
  H       72.309     298.415     214.952
  H       68.781     297.341     214.867
  H       69.013     298.320     217.491
  H       70.605     300.039     216.818
  H       68.626     300.639     214.530
  H       70.291     302.340     214.603
  H       73.501     293.107     217.970
  H       74.232     294.475     217.133
  H       71.604     301.167     214.907
  P       69.481     301.748     218.424
  C       68.132     301.010     220.523
  O       69.131     300.678     219.564
  O       68.515     302.979     218.758
  O       70.915     302.157     218.332
  H       68.982     303.653     219.286
  H       68.015     300.199     221.211
  H       67.203     301.190     220.023
  H       68.427     301.890     221.055

 6  7  8  9  10  11  12  13  14  15  25  28  32  33  34  35 0
 6-311+G(2d,p)
 ****
 36  39  40 0
 6-311+G(2d,p)
 ****
 1  2  3  4  5  16  17  18  19  20  21  22  23  24 0
 3-21G
 ****
 26  27  29  30  31  37  38  41  42  43  44  45  46  47 0
 3-21G
 ****
 48 0
 3-21G
 ****


