%nproc=1
%NoSave
%Mem=1900MB
#P OB98/GEN NMR

erre ene a

0 1
  C     1633.644    -341.378     217.430
  O     1632.720    -340.433     216.893
  P     1631.473    -340.877     215.966
  C     1632.911    -341.128     213.841
  O     1631.870    -340.400     214.504
  C     1633.358    -340.364     212.592
  O     1632.292    -340.382     211.620
  C     1633.697    -338.885     212.813
  O     1635.017    -338.633     213.272
  C     1633.572    -338.372     211.360
  O     1634.760    -338.702     210.615
  C     1632.354    -339.158     210.863
  N     1628.630    -336.701     208.341
  C     1629.717    -337.401     207.908
  N     1630.674    -337.991     208.637
  C     1630.399    -337.892     209.944
  C     1629.325    -337.248     210.541
  C     1628.400    -336.639     209.688
  N     1627.275    -335.954     210.122
  N     1629.384    -337.350     211.937
  C     1630.470    -338.075     212.167
  N     1631.118    -338.406     210.989
  O     1630.141    -340.466     216.494
  O     1631.636    -342.473     215.890
  H     1635.413    -338.025     210.818
  H     1630.785    -342.873     215.575
  H     1629.866    -337.419     206.834
  H     1630.832    -338.325     213.138
  H     1632.457    -339.439     209.797
  H     1633.463    -337.272     211.328
  H     1632.951    -338.386     213.423
  H     1634.222    -340.895     212.152
  H     1632.503    -342.101     213.534
  H     1626.599    -335.665     209.412
  H     1627.026    -336.046     211.109
  H     1633.723    -341.291     214.530
  P     1635.185    -337.599     214.476
  C     1635.176    -335.616     212.738
  O     1635.834    -336.267     213.828
  O     1635.894    -338.132     215.677
  O     1633.669    -337.142     214.775
  H     1633.236    -336.640     214.065
  H     1635.684    -334.669     212.567
  H     1634.134    -335.423     213.001
  H     1635.237    -336.242     211.853
  H     1634.383    -340.865     218.009
  H     1634.120    -341.905     216.630
  H     1633.122    -342.073     218.054

 3  4  5  6  7  8  9  10  11  12  22  25  29  30  31  32 0
 6-311+G(2d,p)
 ****
 33  36  37 0
 6-311+G(2d,p)
 ****
 1  2  13  14  15  16  17  18  19  20  21  23  24  26 0
 3-21G
 ****
 27  28  34  35  38  39  40  41  42  43  44  45  46  47  48 0
 3-21G
 ****


