%nproc=1
%NoSave
%Mem=1900MB
#P OB98/GEN NMR

erre ene a

0 1
  C     -302.379    -464.864     106.968
  O     -302.094    -463.583     106.445
  H     -301.688    -465.585     106.520
  H     -303.400    -465.155     106.708
  H     -302.249    -464.880     108.055
  P     -302.871    -462.312     107.036
  C     -304.771    -462.345     105.286
  O     -304.424    -462.481     106.657
  C     -306.052    -461.519     105.127
  O     -307.177    -462.321     105.580
  C     -306.046    -460.216     105.933
  O     -306.705    -459.200     105.178
  C     -306.869    -460.559     107.165
  O     -307.482    -459.409     107.744
  C     -307.868    -461.569     106.604
  N     -310.593    -461.812     110.858
  C     -310.358    -460.748     110.003
  N     -310.922    -459.562     110.346
  N     -309.635    -460.833     108.918
  C     -309.154    -462.079     108.687
  C     -309.318    -463.215     109.453
  C     -310.101    -463.095     110.669
  O     -310.328    -464.004     111.469
  N     -308.660    -464.288     108.903
  C     -308.103    -463.801     107.807
  N     -308.366    -462.463     107.638
  O     -302.284    -460.984     106.666
  O     -302.853    -462.538     108.617
  H     -306.766    -458.769     107.938
  H     -302.214    -461.946     109.051
  H     -311.148    -461.686     111.685
  H     -307.504    -464.367     107.105
  H     -308.742    -461.086     106.152
  H     -306.223    -461.023     107.919
  H     -311.508    -459.436     111.156
  H     -305.037    -459.888     106.183
  H     -310.788    -458.778     109.719
  H     -306.208    -461.324     104.058
  H     -304.923    -463.351     104.869
  H     -303.943    -461.865     104.749
  P     -305.860    -458.338     104.122
  C     -304.722    -456.952     105.968
  O     -304.528    -457.794     104.839
  O     -306.631    -457.309     103.366
  O     -305.286    -459.463     103.126
  H     -305.243    -459.097     102.219
  H     -303.771    -456.654     106.358
  H     -305.266    -457.484     106.720
  H     -305.275    -456.084     105.675

 6  7  8  9  10  11  12  13  14  15  26  29  33  34 0
 6-311+G(2d,p)
 ****
 36  38  39  40  41 0
 6-311+G(2d,p)
 ****
 1  2  3  4  5  16  17  18  19  20  21  22  23  24  25 0
 3-21G
 ****
 27  28  30  31  32  35  37  42  43  44  45  46  47 0
 3-21G
 ****
 48  49 0
 3-21G
 ****


