%nproc=1
%NoSave
%Mem=1900MB
#P OB98/GEN NMR

erre ene a

0 1
  C      526.616    -357.966    -896.080
  O      525.498    -357.289    -896.660
  P      524.179    -357.158    -895.730
  C      524.422    -354.562    -895.660
  O      524.311    -355.772    -894.910
  C      523.362    -353.561    -895.200
  O      522.135    -353.728    -895.940
  C      522.965    -353.691    -893.730
  O      523.910    -353.079    -892.870
  C      521.646    -352.928    -893.720
  O      521.898    -351.512    -893.610
  C      521.051    -353.261    -895.100
  N      518.656    -356.895    -897.700
  C      519.660    -356.041    -898.100
  N      520.108    -356.189    -899.370
  N      520.184    -355.112    -897.340
  C      519.649    -355.105    -896.080
  C      518.652    -355.897    -895.560
  C      518.074    -356.887    -896.450
  O      517.152    -357.660    -896.150
  N      518.403    -355.602    -894.250
  C      519.249    -354.641    -893.970
  N      520.031    -354.290    -895.050
  O      524.417    -358.266    -894.610
  O      522.902    -357.373    -896.470
  H      522.404    -351.263    -894.410
  H      523.569    -358.574    -894.250
  H      518.284    -357.583    -898.340
  H      519.357    -354.164    -893.000
  H      520.624    -352.372    -895.580
  H      521.009    -353.201    -892.870
  H      519.808    -356.915    -900.000
  H      522.796    -354.741    -893.470
  H      520.873    -355.576    -899.680
  H      523.747    -352.553    -895.400
  H      524.293    -354.760    -896.720
  H      525.438    -354.156    -895.510
  P      524.922    -354.042    -892.080
  C      527.248    -353.353    -892.990
  O      526.166    -354.258    -893.060
  O      524.160    -355.460    -892.110
  O      525.239    -353.598    -890.680
  H      524.410    -355.986    -891.320
  H      527.507    -353.113    -891.950
  H      526.987    -352.428    -893.530
  H      528.121    -353.801    -893.470
  H      527.422    -357.990    -896.783
  H      526.334    -358.966    -895.826
  H      526.928    -357.448    -895.197

 3  4  5  6  7  8  9  10  11  12  23  26  30  31  33  0
 6-311+G(2d,p)
 ****
 35  36  37  38 0
 6-311+G(2d,p)
 ****
 1  2  13  14  15  16  17  18  19  20  21  22  24  25  27  28  29 0
 3-21G
 ****
 32  34  39  40  41  42  43  44  45  46  47  48  49 0
 3-21G
 ****


