%nproc=1
%NoSave
%Mem=1900MB
#P OB98/GEN NMR

erre ene a

0 1
  C      241.207    -101.405    -559.376
  O      241.138    -101.922    -560.696
  H      240.338    -101.763    -558.815
  H      241.186    -100.313    -559.402
  H      242.121    -101.755    -558.886
  P      242.337    -101.525    -561.678
  C      243.611    -103.793    -561.891
  O      243.559    -102.493    -561.309
  C      245.050    -104.146    -562.292
  O      245.898    -104.051    -561.108
  C      245.206    -105.567    -562.844
  O      246.318    -105.566    -563.770
  C      245.585    -106.349    -561.602
  O      246.094    -107.623    -561.933
  C      246.537    -105.349    -560.955
  N      248.920    -108.402    -557.627
  C      248.920    -108.379    -558.970
  N      248.275    -107.518    -559.789
  C      247.582    -106.609    -559.077
  C      247.503    -106.498    -557.703
  C      248.218    -107.464    -556.958
  N      248.212    -107.498    -555.571
  N      246.691    -105.442    -557.333
  C      246.295    -104.916    -558.482
  N      246.811    -105.596    -559.558
  O      242.806    -100.094    -561.130
  O      241.992    -101.475    -563.130
  H      245.502    -108.074    -562.559
  H      242.369     -99.383    -561.631
  H      249.517    -109.138    -559.463
  H      245.640    -104.058    -558.578
  H      247.496    -105.310    -561.476
  H      244.706    -106.518    -560.959
  H      244.310    -105.946    -563.364
  H      245.417    -103.395    -563.005
  H      242.962    -103.799    -562.779
  H      243.230    -104.529    -561.167
  H      248.748    -108.234    -555.123
  H      247.677    -106.811    -555.072
  P      246.088    -106.098    -565.276
  C      245.573    -103.760    -566.335
  O      245.115    -105.072    -566.043
  O      245.122    -107.352    -565.032
  O      247.322    -106.511    -566.008
  H      245.253    -108.008    -565.748
  H      244.803    -103.218    -566.844
  H      246.441    -103.816    -566.958
  H      245.820    -103.257    -565.423

 6  7  8  9  10  11  12  13  14  15  25  28  32  33  34  35 0
 6-311+G(2d,p)
 ****
 36  37  40 0
 6-311+G(2d,p)
 ****
 1  2  3  4  5  16  17  18  19  20  21  22  23  24 0
 3-21G
 ****
 26  27  29  30  31  38  39 41  42  43  44  45  46  47  48 0
 3-21G
 ****


