%nproc=1
%NoSave
%Mem=1900MB
#P OB98/GEN NMR

erre ene a

0 1
  C      -71.697     450.030      45.339
  O      -72.954     449.414      45.109
  P      -73.077     448.130      44.165
  C      -75.031     449.272      42.834
  O      -73.810     448.563      42.816
  C      -75.027     450.293      41.687
  O      -73.901     451.183      41.817
  C      -74.932     449.607      40.326
  O      -76.221     449.413      39.769
  C      -74.068     450.566      39.532
  O      -74.859     451.655      39.024
  C      -73.089     451.076      40.617
  N      -71.911     450.245      40.939
  C      -70.732     450.856      41.350
  O      -70.605     452.071      41.500
  N      -69.669     450.014      41.568
  C      -69.697     448.654      41.457
  O      -68.698     447.943      41.415
  C      -71.026     448.060      41.290
  C      -72.050     448.868      41.021
  O      -74.175     447.237      44.912
  O      -71.805     447.379      43.933
  H      -74.242     452.290      38.612
  H      -73.746     446.538      45.441
  H      -68.773     450.463      41.731
  H      -71.115     446.985      41.337
  H      -73.039     448.445      40.851
  H      -72.720     452.079      40.376
  H      -73.630     450.077      38.663
  H      -74.400     448.652      40.418
  H      -75.944     450.893      41.745
  H      -75.155     449.779      43.797
  H      -75.868     448.578      42.721
  P      -76.740     447.930      39.466
  C      -77.013     448.687      37.030
  O      -76.477     447.708      37.897
  O      -78.122     447.623      39.933
  O      -75.645     447.004      40.183
  H      -75.976     446.723      41.061
  H      -76.619     448.520      36.024
  H      -76.734     449.691      37.359
  H      -78.104     448.595      36.999
  H      -71.824     450.867      45.993
  H      -71.288     450.364      44.408
  H      -71.031     449.324      45.789

 3  4  5  6  7  8  9  10  11  12  13  23  28  29  30  31  32 0
 6-311+G(2d,p)
 ****
 33  34 0
 6-311+G(2d,p)
 ****
 1  2  14  15  16  17  18  19  20  21  22  24  25  26  27 0
 3-21G
 ****
 35  36  37  38  39  40  41  42  43  44  45 0
 3-21G
 ****


