%nproc=1
%NoSave
%Mem=1900MB
#P OB98/GEN NMR

erre ene a

0 1
  C      747.133     917.312    -522.335
  O      747.555     916.128    -521.701
  H      748.009     917.828    -522.744
  H      746.646     917.971    -521.613
  H      746.441     917.090    -523.153
  P      746.411     915.198    -521.051
  C      746.411     913.357    -522.894
  O      745.724     914.448    -522.302
  C      745.427     912.490    -523.680
  O      744.485     911.885    -522.780
  C      744.633     913.278    -524.747
  O      744.574     912.509    -525.958
  C      743.259     913.421    -524.139
  O      742.247     913.581    -525.122
  C      743.152     912.158    -523.264
  N      742.225     912.334    -522.153
  C      740.862     912.005    -522.422
  O      740.523     911.604    -523.542
  N      739.934     912.205    -521.424
  C      740.304     912.705    -520.298
  N      739.328     912.889    -519.366
  C      741.691     913.108    -519.990
  C      742.593     912.893    -520.956
  O      745.311     916.252    -520.582
  O      746.879     914.282    -519.966
  H      741.382     913.482    -524.686
  H      744.648     915.843    -519.979
  H      741.948     913.558    -519.033
  H      743.630     913.156    -520.840
  H      742.827     911.307    -523.870
  H      743.246     914.319    -523.488
  H      745.068     914.242    -524.969
  H      745.991     911.650    -524.150
  H      738.382     912.603    -519.610
  H      746.870     912.749    -522.103
  H      739.489     913.313    -518.451
  H      747.199     913.731    -523.561
  P      745.279     913.173    -527.240
  C      746.619     911.060    -527.956
  O      746.680     912.394    -527.476
  O      745.734     914.607    -526.700
  O      744.399     913.252    -528.427
  H      745.104     915.286    -526.992
  H      747.611     910.674    -528.064
  H      746.125     911.045    -528.905
  H      746.075     910.455    -527.261

 6  7  8  9  10  11  12  13  14  15  16  26  30  31  32  33  35 0
 6-311+G(2d,p)
 ****
 37  38 0
 6-311+G(2d,p)
 ****
 1  2  3  4  5  17  18  19  20  21  22  23  24  25 0
 3-21G
 ****
 27  28  29  34  36  39  40  41  42  43  44  45  46 0
 3-21G
 ****


