%nproc=1
%NoSave
%Mem=1900MB
#P OB98/GEN NMR

erre ene a

0 1
  C     -698.856     118.502    -248.066
  O     -699.193     119.872    -248.181
  H     -698.063     118.399    -247.322
  H     -698.499     118.116    -249.024
  H     -699.726     117.931    -247.732
  P     -700.324     120.245    -249.256
  C     -698.733     121.281    -251.018
  O     -699.565     120.185    -250.669
  C     -698.510     121.324    -252.530
  O     -698.080     120.036    -253.007
  C     -699.746     121.687    -253.337
  O     -699.913     123.098    -253.385
  C     -699.374     121.129    -254.704
  O     -698.508     122.056    -255.385
  C     -698.596     119.851    -254.344
  N     -701.066     116.492    -257.337
  C     -700.549     117.710    -257.600
  N     -699.960     118.570    -256.748
  C     -699.910     118.056    -255.503
  C     -700.400     116.825    -255.089
  C     -700.995     116.016    -256.073
  N     -701.520     114.776    -255.803
  N     -700.180     116.640    -253.741
  C     -699.513     117.713    -253.365
  N     -699.361     118.617    -254.383
  O     -701.098     121.488    -248.976
  O     -701.188     118.896    -249.270
  H     -698.934     122.930    -255.338
  H     -700.605     118.118    -249.234
  H     -700.630     118.041    -258.631
  H     -699.110     117.873    -252.372
  H     -697.736     119.703    -255.012
  H     -700.242     120.974    -255.346
  H     -700.640     121.175    -252.969
  H     -697.691     122.032    -252.726
  H     -697.768     121.203    -250.502
  H     -702.098     114.353    -256.517
  H     -701.581     114.485    -254.839
  H     -699.232     122.197    -250.683
  P     -701.377     123.760    -253.349
  C     -700.967     124.799    -255.667
  O     -701.788     123.927    -254.893
  O     -701.478     124.989    -252.511
  O     -702.329     122.579    -252.854
  H     -703.187     122.953    -252.550
  H     -701.332     124.833    -256.672
  H     -699.960     124.436    -255.665
  H     -700.993     125.782    -255.245

 6  7  8  9  10  11  12  13  14  15  25  28  32  33  34  35 0
 6-311+G(2d,p)
 ****
 36  39  40 0
 6-311+G(2d,p)
 ****
 1  2  3  4  5  16  17  18  19  20  21  22  23  24 0
 3-21G
 ****
 26  27  29  30  31  37  38  41  42  43  44  45  46  47 0
 3-21G
 ****
 48 0
 3-21G
 ****


