%nproc=1
%NoSave
%Mem=1900MB
#P OB98/GEN NMR

erre ene a

0 1
  C      195.381     781.177     410.352
  O      195.045     782.430     409.777
  H      194.655     780.436     410.019
  H      195.341     781.238     411.447
  H      196.383     780.866     410.030
  P      195.927     783.716     410.169
  C      198.405     783.048     410.439
  O      197.387     783.482     409.546
  C      199.576     782.443     409.672
  O      199.061     781.340     408.869
  C      200.237     783.459     408.708
  O      201.647     783.558     408.886
  C      199.729     783.027     407.327
  O      200.562     783.377     406.254
  C      199.499     781.519     407.501
  N      198.512     780.954     406.576
  C      198.990     780.099     405.584
  O      200.172     779.746     405.461
  N      198.036     779.605     404.733
  C      196.716     779.897     404.737
  O      195.919     779.430     403.932
  C      196.273     780.826     405.777
  C      197.181     781.321     406.639
  O      195.913     784.098     411.617
  O      195.320     784.884     409.259
  H      200.826     784.320     406.370
  H      194.740     785.459     409.792
  H      198.376     778.972     404.019
  H      195.224     781.091     405.810
  H      196.888     782.018     407.435
  H      200.427     780.968     407.373
  H      198.766     783.519     407.159
  H      199.879     784.479     408.922
  H      200.301     782.032     410.376
  H      197.955     782.295     411.105
  H      198.756     783.894     411.049
  P      202.397     784.800     409.558
  C      203.514     785.251     411.879
  O      202.646     784.459     411.098
  O      201.807     786.140     409.256
  O      203.868     784.759     408.901
  H      204.174     785.685     408.837
  H      203.548     784.865     412.876
  H      203.156     786.259     411.899
  H      204.496     785.229     411.454

 6  7  8  9  10  11  12  13  14  15  16  26  31  32  33  34  35 0
 6-311+G(2d,p)
 ****
 36  37 0
 6-311+G(2d,p)
 ****
 1  2  3  4  5  17  18  19  20  21  22  23  24  25 0
 3-21G
 ****
 27  28  29  30  38  39  40  41  42  43  44  45 0
 3-21G
 ****


