%nproc=1
%NoSave
%Mem=1900MB
#P OB98/GEN NMR

erre ene a

0 1
  C      221.092     151.095      69.476
  O      220.168     150.128      70.004
  P      218.774     150.635      70.626
  C      219.068     149.490      72.961
  O      218.313     149.603      71.762
  C      219.159     148.022      73.388
  O      220.124     147.316      72.573
  C      219.627     147.815      74.823
  O      218.593     148.074      75.758
  C      220.061     146.353      74.791
  O      218.930     145.477      74.957
  C      220.643     146.226      73.368
  N      222.104     146.206      73.359
  C      222.711     145.072      73.889
  O      222.081     144.149      74.400
  N      224.077     145.051      73.844
  C      224.884     146.059      73.395
  O      226.108     145.987      73.398
  C      224.186     147.265      72.919
  C      222.852     147.286      72.929
  O      217.742     150.308      69.441
  O      218.715     152.083      70.989
  H      219.242     144.577      74.739
  H      216.991     150.927      69.480
  H      224.536     144.225      74.195
  H      224.791     148.096      72.578
  H      222.324     148.170      72.582
  H      220.280     145.308      72.891
  H      220.772     146.111      75.584
  H      220.500     148.444      75.026
  H      218.179     147.557      73.231
  H      218.577     150.063      73.753
  H      220.066     149.907      72.793
  P      219.036     148.742      77.151
  C      216.708     148.393      78.297
  O      217.680     149.294      77.804
  O      219.806     150.046      76.634
  O      219.854     147.830      78.004
  H      219.420     150.399      75.814
  H      217.169     147.491      78.708
  H      216.029     148.115      77.488
  H      216.136     148.889      79.087
  H      221.961     150.593      69.105
  H      221.377     151.776      70.251
  H      220.626     151.636      68.680

 3  4  5  6  7  8  9  10  11  12  13  23  28  29  30  31  32 0
 6-311+G(2d,p)
 ****
 33  34 0
 6-311+G(2d,p)
 ****
 1  2  14  15  16  17  18  19  20  21  22  24  25  26 0
 3-21G
 ****
 27  35  36  37  38  39  40  41  42  43  44  45 0
 3-21G
 ****


