%nproc=1
%NoSave
%Mem=1900MB
#P OB98/GEN NMR

erre ene a

0 1
  C      164.985    -569.626     -85.811
  O      164.753    -571.005     -86.062
  P      165.270    -571.763     -87.358
  C      164.944    -571.577     -89.939
  O      164.537    -571.129     -88.653
  C      163.752    -571.996     -90.825
  O      162.835    -570.882     -90.956
  C      164.250    -572.310     -92.241
  O      164.768    -573.594     -92.550
  C      163.115    -571.842     -93.175
  O      162.266    -572.905     -93.576
  C      162.353    -570.835     -92.303
  N      160.064    -567.156     -94.940
  C      159.529    -568.329     -94.436
  N      158.277    -568.632     -94.835
  N      160.163    -569.121     -93.620
  C      161.440    -568.741     -93.384
  C      162.089    -567.583     -93.815
  C      161.338    -566.703     -94.665
  O      161.810    -565.700     -95.221
  N      163.395    -567.564     -93.425
  C      163.573    -568.706     -92.803
  N      162.429    -569.468     -92.780
  O      165.402    -573.247     -87.271
  O      166.766    -571.153     -87.512
  H      162.746    -573.453     -94.235
  H      167.347    -571.869     -87.866
  H      159.542    -566.630     -95.623
  H      164.516    -569.044     -92.376
  H      161.289    -571.101     -92.269
  H      163.532    -571.410     -94.090
  H      157.813    -568.123     -95.583
  H      165.084    -571.623     -92.450
  H      157.909    -569.557     -94.627
  H      163.184    -572.801     -90.363
  H      165.628    -572.429     -89.786
  H      165.506    -570.790     -90.436
  P      165.633    -573.990     -93.831
  C      165.314    -574.119     -96.380
  O      164.761    -573.689     -95.138
  O      165.693    -575.592     -93.798
  O      167.026    -573.422     -93.857
  H      166.452    -575.907     -94.307
  H      164.814    -573.607     -97.190
  H      165.178    -575.204     -96.477
  H      166.398    -573.882     -96.418
  H      164.539    -569.353     -84.877
  H      164.552    -569.043     -86.597
  H      166.038    -569.443     -85.770

 3  4  5  6  7  8  9  10  11  12  23  26  30  31 0
 6-311+G(2d,p)
 ****
 33  35  36  37  38 0
 6-311+G(2d,p)
 ****
 1  2  13  14  15  16  17  18  19  20  21  22  24  25 0
 3-21G
 ****
 27  28  29  32  34  39  40  41  42  43  44  45  46  47  48  49 0
 3-21G
 ****


