%nproc=1
%NoSave
%Mem=1900MB
#P OB98/GEN NMR

erre ene a

0 1
  C       32.608    -346.915     208.910
  O       33.716    -346.111     209.265
  H       31.694    -346.327     209.036
  H       32.560    -347.785     209.569
  H       32.680    -347.238     207.868
  P       35.168    -346.652     208.847
  C       35.334    -345.127     206.755
  O       35.286    -346.452     207.258
  C       35.815    -345.126     205.307
  O       37.178    -345.595     205.228
  C       34.999    -346.020     204.374
  O       33.828    -345.360     203.912
  C       35.995    -346.226     203.244
  O       36.037    -345.047     202.410
  C       37.318    -346.376     204.007
  N       40.406    -350.278     203.035
  C       40.316    -349.045     202.418
  N       41.160    -348.824     201.388
  N       39.469    -348.115     202.771
  C       38.669    -348.484     203.798
  C       38.657    -349.674     204.487
  C       39.610    -350.689     204.095
  O       39.741    -351.791     204.620
  N       37.704    -349.685     205.469
  C       37.120    -348.507     205.360
  N       37.665    -347.743     204.359
  O       35.015    -348.239     209.022
  O       36.301    -346.123     209.658
  H       35.120    -344.849     202.152
  H       35.446    -348.506     209.856
  H       41.071    -350.963     202.715
  H       36.306    -348.158     205.981
  H       38.165    -345.963     203.452
  H       35.727    -347.063     202.595
  H       41.822    -349.507     201.051
  H       34.765    -346.984     204.840
  H       41.112    -347.928     200.924
  H       35.807    -344.089     204.950
  H       36.024    -344.533     207.367
  H       34.333    -344.688     206.816
  P       32.627    -346.257     203.343
  C       30.907    -346.336     205.282
  O       31.964    -347.001     204.602
  O       33.398    -347.433     202.576
  O       31.680    -345.549     202.440
  H       33.256    -347.352     201.615
  H       30.565    -346.945     206.093
  H       30.099    -346.162     204.602
  H       31.261    -345.401     205.663

 6  7  8  9  10  11  12  13  14  15  26  29  33  34 0
 6-311+G(2d,p)
 ****
 36  38  39  40  41 0
 6-311+G(2d,p)
 ****
 1  2  3  4  5  16  17  18  19  20  21  22  23  24  25 0
 3-21G
 ****
 27  28  30  31  32  35  37  42  43  44  45  46  47 0
 3-21G
 ****
 48  49 0
 3-21G
 ****


