%nproc=1
%NoSave
%Mem=1900MB
#P OB98/GEN NMR

erre ene a

0 1
  C     -504.472     390.493     148.039
  O     -505.575     391.362     148.048
  P     -506.435     391.707     146.753
  C     -507.955     389.600     147.112
  O     -507.136     390.357     146.225
  C     -509.349     389.343     146.502
  O     -509.164     388.737     145.187
  C     -510.158     388.354     147.353
  O     -511.530     388.716     147.489
  C     -509.852     387.007     146.701
  O     -510.809     386.002     147.001
  C     -509.712     387.397     145.227
  N     -509.504     383.294     142.236
  C     -510.610     384.007     142.642
  N     -511.813     383.464     142.392
  N     -510.525     385.143     143.296
  C     -509.263     385.507     143.607
  C     -508.096     384.880     143.233
  C     -508.185     383.651     142.496
  O     -507.238     382.926     142.200
  N     -506.996     385.510     143.773
  C     -507.502     386.501     144.483
  N     -508.872     386.521     144.438
  O     -505.802     392.610     145.739
  O     -507.692     392.498     147.397
  H     -510.537     385.199     146.522
  H     -507.957     393.180     146.754
  H     -509.641     382.375     141.804
  H     -506.926     387.208     145.063
  H     -510.682     387.428     144.729
  H     -508.891     386.669     147.110
  H     -511.890     382.530     142.030
  H     -509.800     388.355     148.380
  H     -512.620     383.823     142.885
  H     -509.860     390.305     146.343
  H     -508.051     390.199     148.021
  H     -507.466     388.668     147.374
  P     -512.603     388.208     148.553
  C     -512.112     390.157     150.158
  O     -512.167     388.756     150.001
  O     -512.359     386.641     148.677
  O     -514.026     388.470     148.203
  H     -513.204     386.169     148.769
  H     -511.539     390.395     151.066
  H     -513.110     390.562     150.238
  H     -511.598     390.616     149.292
  H     -504.064     390.424     149.026
  H     -503.727     390.870     147.370
  H     -504.785     389.523     147.714

 3  4  5  6  7  8  9  10  11  12  23  26  30  31 0
 6-311+G(2d,p)
 ****
 33  35  36  37  38 0
 6-311+G(2d,p)
 ****
 1  2  13  14  15  16  17  18  19  20  21  22  24  25 0
 3-21G
 ****
 27  28  29  32  34  39  40  41  42  43  44  45  46  47  48  49 0
 3-21G
 ****


