%nproc=1
%NoSave
%Mem=1900MB
#P OB98/GEN NMR

erre ene a

0 1
  C      209.091     163.466      44.603
  O      208.601     163.975      45.847
  P      207.659     162.994      46.706
  C      205.263     163.737      46.011
  O      206.305     162.780      45.873
  C      203.926     163.149      45.564
  O      203.932     162.863      44.154
  C      203.569     161.831      46.237
  O      203.041     162.030      47.539
  C      202.496     161.303      45.295
  O      201.226     161.903      45.613
  C      202.989     161.787      43.923
  N      202.347     157.878      40.763
  C      201.408     158.705      41.348
  N      200.118     158.476      41.023
  N      201.707     159.671      42.175
  C      203.041     159.804      42.384
  C      204.066     159.048      41.864
  C      203.716     157.960      40.974
  O      204.505     157.178      40.454
  N      205.288     159.489      42.299
  C      205.006     160.530      43.059
  N      203.653     160.753      43.153
  O      207.197     163.920      47.928
  O      208.343     161.752      47.171
  H      201.121     161.850      46.584
  H      206.991     163.369      48.706
  H      202.057     157.144      40.138
  H      205.739     161.154      43.556
  H      202.174     162.196      43.316
  H      202.361     160.220      45.371
  H      199.821     157.797      40.339
  H      204.427     161.147      46.240
  H      199.420     159.096      41.417
  H      203.144     163.894      45.766
  H      205.490     164.620      45.410
  H      205.219     164.065      47.055
  P      203.997     161.678      48.779
  C      202.822     159.461      49.428
  O      203.975     160.083      48.898
  O      203.150     162.176      50.041
  O      205.345     162.317      48.719
  H      203.749     162.436      50.768
  H      201.910     159.908      49.028
  H      202.825     159.547      50.520
  H      202.839     158.400      49.160
  H      209.701     164.207      44.130
  H      208.266     163.224      43.967
  H      209.673     162.586      44.782

 3  4  5  6  7  8  9  10  11  12  23  26  30  31  33  0
 6-311+G(2d,p)
 ****
 35  36  37  38 0
 6-311+G(2d,p)
 ****
 1  2  13  14  15  16  17  18  19  20  21  22  24  25  27  28  29 0
 3-21G
 ****
 32  34  39  40  41  42  43  44  45  46  47  48  49 0
 3-21G
 ****


