%nproc=1
%NoSave
%Mem=1900MB
#P OB98/GEN NMR

erre ene a

0 1
  C      157.551     -85.052    -292.282
  O      157.283     -86.174    -291.467
  H      157.784     -85.402    -293.291
  H      158.408     -84.495    -291.898
  H      156.673     -84.401    -292.333
  P      156.976     -85.942    -289.912
  C      159.230     -86.854    -289.047
  O      158.391     -85.711    -289.189
  C      160.488     -86.486    -288.250
  O      161.245     -85.532    -289.038
  C      160.159     -85.841    -286.897
  O      160.808     -86.479    -285.799
  C      160.459     -84.365    -287.129
  O      160.799     -83.640    -285.966
  C      161.551     -84.398    -288.204
  N      161.633     -83.177    -289.005
  C      162.603     -82.245    -288.647
  O      163.411     -82.377    -287.733
  N      162.635     -81.107    -289.413
  C      161.813     -80.814    -290.458
  O      161.892     -79.781    -291.109
  C      160.793     -81.829    -290.772
  C      160.750     -82.947    -290.040
  O      156.104     -86.965    -289.265
  O      156.308     -84.486    -289.862
  H      160.082     -83.772    -285.311
  H      155.342     -84.575    -289.759
  H      163.342     -80.430    -289.172
  H      160.115     -81.626    -291.590
  H      160.014     -83.717    -290.245
  H      162.530     -84.564    -287.753
  H      159.561     -83.895    -287.549
  H      159.096     -85.953    -286.658
  H      161.108     -87.382    -288.131
  H      159.503     -87.198    -290.049
  H      158.684     -87.649    -288.530
  P      160.161     -87.637    -284.911
  C      160.078     -86.846    -282.413
  O      159.422     -86.958    -283.668
  O      161.052     -88.797    -284.617
  O      158.947     -88.174    -285.830
  H      158.858     -89.130    -285.640
  H      159.427     -86.367    -281.712
  H      160.969     -86.265    -282.527
  H      160.332     -87.822    -282.055

 6  7  8  9  10  11  12  13  14  15  16  26  31  32  33  34  35 0
 6-311+G(2d,p)
 ****
 36  37 0
 6-311+G(2d,p)
 ****
 1  2  3  4  5  17  18  19  20  21  22  23  24  25 0
 3-21G
 ****
 27  28  29  30  38  39  40  41  42  43  44  45 0
 3-21G
 ****


