%nproc=1
%NoSave
%Mem=1900MB
#P OB98/GEN NMR

erre ene a

0 1
  C     -303.568     723.881     432.475
  O     -304.165     724.775     431.543
  P     -305.533     724.343     430.831
  C     -307.324     724.612     432.764
  O     -306.769     725.065     431.548
  C     -308.547     725.475     433.112
  O     -309.307     724.861     434.184
  C     -308.180     726.882     433.576
  O     -308.028     727.779     432.483
  C     -309.349     727.229     434.485
  O     -310.494     727.598     433.704
  C     -309.588     725.876     435.189
  N     -308.787     725.570     436.404
  C     -309.385     725.659     437.664
  O     -310.550     725.995     437.851
  N     -308.586     725.341     438.726
  C     -307.333     724.790     438.666
  O     -306.690     724.470     439.653
  C     -306.811     724.573     437.308
  C     -307.548     724.974     436.263
  O     -305.700     722.808     431.238
  O     -305.552     724.536     429.350
  H     -310.769     726.813     433.205
  H     -305.650     722.240     430.447
  H     -308.973     725.479     439.653
  H     -305.844     724.098     437.213
  H     -307.164     724.822     435.255
  H     -310.646     725.770     435.472
  H     -309.113     728.081     435.111
  H     -307.274     726.862     434.187
  H     -309.193     725.530     432.227
  H     -306.589     724.659     433.570
  H     -307.618     723.563     432.673
  P     -307.029     729.019     432.606
  C     -304.702     728.450     431.686
  O     -306.010     728.886     431.374
  O     -306.401     729.228     433.951
  O     -307.942     730.269     432.168
  H     -308.319     730.722     432.958
  H     -304.163     728.240     430.764
  H     -304.742     727.531     432.289
  H     -304.177     729.229     432.244
  H     -302.668     724.314     432.858
  H     -303.339     722.957     431.987
  H     -304.248     723.700     433.281

 3  4  5  6  7  8  9  10  11  12  13  23  28  29  30  31  32 0
 6-311+G(2d,p)
 ****
 33  34 0
 6-311+G(2d,p)
 ****
 1  2  14  15  16  17  18  19  20  21  22  24  25  26  27 0
 3-21G
 ****
 35  36  37  38  39  40  41  42  43  44  45 0
 3-21G
 ****


