%nproc=1
%NoSave
%Mem=1900MB
#P OB98/GEN NMR

erre ene a

0 1
  C      -56.002      59.481      81.292
  O      -56.984      60.172      80.548
  H      -55.426      60.209      81.869
  H      -55.323      58.942      80.628
  H      -56.475      58.782      81.988
  P      -57.894      59.338      79.526
  C      -60.010      60.687      80.149
  O      -59.118      60.289      79.120
  C      -61.342      61.168      79.562
  O      -61.089      62.312      78.698
  C      -62.065      60.108      78.715
  O      -63.472      60.359      78.826
  C      -61.568      60.448      77.324
  O      -62.342      59.822      76.332
  C      -61.594      61.977      77.387
  N      -60.813      62.595      76.327
  C      -61.538      63.142      75.265
  O      -62.767      63.077      75.253
  N      -60.852      63.722      74.229
  C      -59.557      63.696      74.220
  N      -58.938      64.275      73.157
  C      -58.753      63.075      75.294
  C      -59.439      62.552      76.308
  O      -58.286      57.970      79.974
  O      -57.018      59.283      78.187
  H      -62.090      60.142      75.436
  H      -56.630      58.395      78.083
  H      -57.675      63.063      75.230
  H      -58.938      62.073      77.143
  H      -62.623      62.353      77.326
  H      -60.541      60.095      77.186
  H      -61.838      59.086      79.026
  H      -61.980      61.523      80.381
  H      -59.527      64.679      72.439
  H      -59.531      61.500      80.703
  H      -57.937      64.297      73.032
  H      -60.190      59.853      80.836
  P      -64.463      59.410      79.654
  C      -66.075      61.424      79.650
  O      -65.948      60.007      79.585
  O      -63.994      59.105      81.041
  O      -64.564      58.063      78.793
  H      -64.710      57.310      79.396
  H      -67.109      61.692      79.594
  H      -65.547      61.867      78.832
  H      -65.664      61.777      80.573

 6  7  8  9  10  11  12  13  14  15  16  26  30  31  32  33  35 0
 6-311+G(2d,p)
 ****
 37  38 0
 6-311+G(2d,p)
 ****
 1  2  3  4  5  17  18  19  20  21  22  23  24  25 0
 3-21G
 ****
 27  28  29  34  36  39  40  41  42  43  44  45  46 0
 3-21G
 ****


