%nproc=1
%NoSave
%Mem=1900MB
#P OB98/GEN NMR

erre ene a

0 1
  C     -231.723     575.596    -921.808
  O     -232.386     576.811    -921.501
  H     -231.662     575.504    -922.900
  H     -232.293     574.746    -921.416
  H     -230.712     575.588    -921.404
  P     -232.521     577.245    -919.963
  C     -230.758     579.080    -920.352
  O     -231.146     577.958    -919.562
  C     -229.401     579.621    -919.904
  O     -228.362     578.668    -920.264
  C     -229.038     580.980    -920.522
  O     -228.367     581.772    -919.542
  C     -228.070     580.598    -921.642
  O     -227.157     581.662    -921.949
  C     -227.374     579.372    -921.037
  N     -223.118     577.476    -922.997
  C     -223.311     578.260    -921.879
  N     -222.204     578.631    -921.205
  N     -224.487     578.675    -921.472
  C     -225.510     578.221    -922.253
  C     -225.441     577.424    -923.379
  C     -224.138     576.994    -923.830
  O     -223.897     576.307    -924.810
  N     -226.693     577.210    -923.904
  C     -227.513     577.867    -923.088
  N     -226.835     578.503    -922.083
  O     -232.955     576.163    -919.022
  O     -233.573     578.459    -919.994
  H     -226.751     581.948    -921.099
  H     -234.461     578.155    -919.733
  H     -222.182     577.201    -923.274
  H     -228.584     577.915    -923.195
  H     -226.536     579.629    -920.384
  H     -228.626     580.343    -922.539
  H     -221.265     578.345    -921.442
  H     -229.915     581.521    -920.916
  H     -222.324     579.196    -920.352
  H     -229.405     579.689    -918.806
  H     -231.525     579.858    -920.244
  H     -230.705     578.780    -921.417
  P     -229.190     582.888    -918.749
  C     -228.513     582.142    -916.363
  O     -229.593     582.287    -917.305
  O     -230.323     583.515    -919.494
  O     -228.064     583.968    -918.377
  H     -228.482     584.853    -918.337
  H     -228.891     581.738    -915.447
  H     -228.072     583.099    -916.176
  H     -227.774     581.481    -916.766

 6  7  8  9  10  11  12  13  14  15  26  29  33  34 0
 6-311+G(2d,p)
 ****
 36  38  39  40  41 0
 6-311+G(2d,p)
 ****
 1  2  3  4  5  16  17  18  19  20  21  22  23  24  25 0
 3-21G
 ****
 27  28  30  31  32  35  37  42  43  44  45  46  47 0
 3-21G
 ****
 48  49 0
 3-21G
 ****


