%nproc=1
%NoSave
%Mem=1900MB
#P OB98/GEN NMR

erre ene a

0 1
  C     -111.391     809.353    -427.575
  O     -110.520     809.490    -428.678
  H     -112.038     808.489    -427.743
  H     -112.014     810.244    -427.448
  H     -110.813     809.167    -426.657
  P     -109.485     810.718    -428.687
  C     -107.676     809.048    -429.460
  O     -108.305     810.297    -429.702
  C     -107.156     808.459    -430.778
  O     -108.233     807.861    -431.517
  C     -106.511     809.488    -431.712
  O     -105.169     809.732    -431.324
  C     -106.598     808.743    -433.037
  O     -105.590     807.719    -433.094
  C     -107.998     808.101    -432.931
  N     -110.047     810.165    -437.110
  C     -108.836     809.527    -436.942
  N     -108.040     809.454    -438.023
  N     -108.424     809.007    -435.808
  C     -109.292     809.221    -434.776
  C     -110.509     809.861    -434.822
  C     -110.988     810.368    -436.084
  O     -112.060     810.909    -436.292
  N     -111.067     809.961    -433.563
  C     -110.203     809.335    -432.772
  N     -109.091     808.884    -433.466
  O     -109.007     811.186    -427.343
  O     -110.254     811.875    -429.486
  H     -105.749     807.210    -433.925
  H     -110.750     812.456    -428.883
  H     -110.303     810.553    -437.996
  H     -110.327     809.193    -431.715
  H     -108.038     807.121    -433.437
  H     -106.456     809.394    -433.893
  H     -108.239     809.949    -438.893
  H     -107.102     810.401    -431.775
  H     -107.120     809.032    -437.915
  H     -106.445     807.644    -430.523
  H     -108.419     808.375    -429.014
  H     -106.835     809.154    -428.762
  P     -104.736     811.116    -430.637
  C     -103.656     810.062    -428.540
  O     -103.439     810.775    -429.748
  O     -105.820     811.827    -429.905
  O     -104.095     811.965    -431.830
  H     -104.766     812.466    -432.363
  H     -102.720     809.901    -428.048
  H     -104.111     809.119    -428.759
  H     -104.301     810.629    -427.902

 6  7  8  9  10  11  12  13  14  15  26  29  33  34 0
 6-311+G(2d,p)
 ****
 36  38  39  40  41 0
 6-311+G(2d,p)
 ****
 1  2  3  4  5  16  17  18  19  20  21  22  23  24  25 0
 3-21G
 ****
 27  28  30  31  32  35  37  42  43  44  45  46  47 0
 3-21G
 ****
 48  49 0
 3-21G
 ****


