%nproc=1
%NoSave
%Mem=1900MB
#P OB98/GEN NMR

erre ene a

0 1
  C      390.949     931.317     -64.743
  O      391.713     931.139     -65.941
  P      391.094     931.593     -67.351
  C      392.049     929.794     -68.964
  O      392.105     931.158     -68.530
  C      393.344     929.439     -69.726
  O      393.503     930.282     -70.899
  C      394.597     929.672     -68.901
  O      394.816     928.787     -67.814
  C      395.670     929.730     -69.967
  O      396.109     928.431     -70.356
  C      394.923     930.426     -71.123
  N      395.294     931.838     -71.279
  C      396.569     932.089     -71.769
  O      397.382     931.206     -72.017
  N      396.904     933.416     -71.913
  C      396.115     934.476     -71.597
  O      396.466     935.645     -71.743
  C      394.777     934.152     -71.078
  C      394.431     932.864     -70.935
  O      390.610     933.001     -67.420
  O      389.879     930.562     -67.543
  H      396.878     928.545     -70.955
  H      389.127     931.058     -67.922
  H      397.828     933.614     -72.276
  H      394.125     934.974     -70.806
  H      393.465     932.593     -70.543
  H      395.141     929.927     -72.079
  H      396.566     930.264     -69.611
  H      394.539     930.678     -68.458
  H      393.261     928.397     -70.068
  H      391.185     929.643     -69.600
  H      391.923     929.146     -68.084
  P      395.128     929.307     -66.323
  C      396.697     927.265     -65.926
  O      395.606     928.042     -65.450
  O      394.143     930.238     -65.701
  O      396.511     930.092     -66.547
  H      396.552     930.841     -65.919
  H      396.875     926.451     -65.218
  H      397.596     927.889     -65.991
  H      396.459     926.836     -66.898
  H      391.512     930.962     -63.905
  H      390.035     930.766     -64.818
  H      390.730     932.356     -64.611

 3  4  5  6  7  8  9  10  11  12  13  23  28  29  30  31  32 0
 6-311+G(2d,p)
 ****
 33  34 0
 6-311+G(2d,p)
 ****
 1  2  14  15  16  17  18  19  20  21  22  24  25  26  27 0
 3-21G
 ****
 35  36  37  38  39  40  41  42  43  44  45 0
 3-21G
 ****


