%nproc=1
%NoSave
%Mem=1900MB
#P OB98/GEN NMR

erre ene a

0 1
  C       15.876     288.861     -58.855
  O       15.070     288.356     -57.809
  H       15.587     288.367     -59.786
  H       16.929     288.644     -58.660
  H       15.731     289.938     -58.972
  P       15.221     288.988     -56.343
  C       15.292     291.431     -55.543
  O       14.697     290.504     -56.438
  C       14.245     292.398     -54.996
  O       13.657     293.124     -56.105
  C       13.111     291.708     -54.229
  O       12.744     292.535     -53.125
  C       11.977     291.673     -55.237
  O       10.696     291.636     -54.609
  C       12.228     292.949     -56.038
  N        7.953     292.222     -58.627
  C        8.163     292.329     -57.268
  N        7.078     292.200     -56.472
  N        9.336     292.542     -56.732
  C       10.329     292.666     -57.645
  C       10.248     292.578     -59.015
  C        8.946     292.328     -59.596
  O        8.700     292.209     -60.791
  N       11.483     292.731     -59.596
  C       12.307     292.909     -58.579
  N       11.656     292.866     -57.373
  O       16.571     288.841     -55.718
  O       14.085     288.259     -55.488
  H       10.576     292.495     -54.151
  H       14.466     287.540     -54.950
  H        7.029     292.048     -58.987
  H       13.375     293.063     -58.657
  H       11.791     293.835     -55.560
  H       12.074     290.784     -55.872
  H        6.143     292.052     -56.814
  H       13.381     290.709     -53.876
  H        7.205     292.299     -55.472
  H       14.751     293.139     -54.365
  H       16.061     291.989     -56.087
  H       15.768     290.886     -54.719
  P       13.168     292.078     -51.646
  C       15.497     290.978     -51.580
  O       14.762     292.197     -51.522
  O       12.587     290.784     -51.180
  O       12.657     293.301     -50.738
  H       12.423     292.959     -49.854
  H       16.542     291.187     -51.487
  H       15.312     290.494     -52.516
  H       15.189     290.337     -50.780

 6  7  8  9  10  11  12  13  14  15  26  29  33  34 0
 6-311+G(2d,p)
 ****
 36  38  39  40  41 0
 6-311+G(2d,p)
 ****
 1  2  3  4  5  16  17  18  19  20  21  22  23  24  25 0
 3-21G
 ****
 27  28  30  31  32  35  37  42  43  44  45  46  47 0
 3-21G
 ****
 48  49 0
 3-21G
 ****


