%nproc=1
%NoSave
%Mem=1900MB
#P OB98/GEN NMR

erre ene a

0 1
  C      299.121      11.430     -61.107
  O      298.292      12.156     -60.223
  H      299.704      10.713     -60.526
  H      299.812      12.101     -61.629
  H      298.515      10.880     -61.834
  P      297.415      13.363     -60.821
  C      298.046      15.856     -61.157
  O      298.495      14.509     -61.155
  C      299.227      16.807     -61.347
  O      300.075      16.824     -60.175
  C      300.164      16.445     -62.497
  O      299.622      16.735     -63.776
  C      301.352      17.327     -62.156
  O      301.061      18.694     -62.510
  C      301.419      17.159     -60.617
  N      302.370      16.136     -60.195
  C      303.709      16.522     -60.086
  O      304.049      17.679     -60.339
  N      304.647      15.582     -59.731
  C      304.281      14.355     -59.517
  N      305.257      13.454     -59.214
  C      302.879      13.904     -59.598
  C      301.984      14.830     -59.945
  O      296.250      13.805     -59.998
  O      297.008      12.871     -62.290
  H      301.018      18.732     -63.481
  H      296.451      13.579     -62.697
  H      302.629      12.868     -59.423
  H      300.937      14.575     -60.046
  H      301.684      18.108     -60.132
  H      302.266      17.043     -62.680
  H      300.471      15.398     -62.430
  H      298.818      17.822     -61.461
  H      306.212      13.789     -59.205
  H      297.535      16.048     -60.207
  H      305.100      12.455     -59.307
  H      297.337      16.017     -61.977
  P      300.141      15.873     -65.024
  C      301.874      16.302     -66.925
  O      301.392      16.673     -65.645
  O      298.986      16.076     -66.110
  O      300.426      14.427     -64.748
  H      298.335      15.346     -66.068
  H      302.701      16.927     -67.189
  H      301.094      16.419     -67.648
  H      302.191      15.280     -66.904

 6  7  8  9  10  11  12  13  14  15  16  26  30  31  32  33  35 0
 6-311+G(2d,p)
 ****
 37  38 0
 6-311+G(2d,p)
 ****
 1  2  3  4  5  17  18  19  20  21  22  23  24  25 0
 3-21G
 ****
 27  28  29  34  36  39  40  41  42  43  44  45  46 0
 3-21G
 ****


