%nproc=1
%NoSave
%Mem=1900MB
#P OB98/GEN NMR

erre ene a

0 1
  C      113.038     143.663      16.574
  O      114.421     143.713      16.865
  H      112.757     144.580      16.048
  H      112.464     143.599      17.503
  H      112.813     142.804      15.937
  P      115.079     142.391      17.484
  C      114.719     141.018      19.695
  O      114.507     142.229      18.978
  C      114.751     141.301      21.194
  O      115.968     141.976      21.573
  C      113.653     142.239      21.669
  O      112.377     141.639      21.654
  C      114.162     142.576      23.063
  O      113.874     141.518      23.988
  C      115.686     142.684      22.812
  N      116.146     144.065      22.761
  C      116.231     144.724      23.994
  O      115.937     144.135      25.034
  N      116.618     146.041      24.010
  C      116.920     146.639      22.900
  N      117.287     147.946      22.984
  C      116.871     145.975      21.584
  C      116.474     144.703      21.587
  O      116.594     142.838      17.733
  O      114.927     141.156      16.659
  H      112.901     141.476      24.063
  H      116.679     143.651      18.258
  H      117.139     146.510      20.685
  H      116.409     144.142      20.665
  H      116.244     142.168      23.604
  H      113.699     143.481      23.460
  H      113.661     143.162      21.075
  H      114.714     140.339      21.723
  H      117.289     148.375      23.901
  H      115.644     140.531      19.373
  H      117.511     148.522      22.185
  H      113.890     140.345      19.455
  P      111.064     142.522      21.397
  C      110.008     144.546      22.588
  O      110.851     143.406      22.721
  O      109.859     141.757      20.963
  O      111.557     143.615      20.336
  H      112.290     144.179      20.642
  H      109.942     145.052      23.528
  H      109.031     144.234      22.282
  H      110.417     145.208      21.854

 6  7  8  9  10  11  12  13  14  15  16  26  30  31  32  33  35 0
 6-311+G(2d,p)
 ****
 37  38 0
 6-311+G(2d,p)
 ****
 1  2  3  4  5  17  18  19  20  21  22  23  24  25 0
 3-21G
 ****
 27  28  29  34  36  39  40  41  42  43  44  45  46 0
 3-21G
 ****


