%nproc=1
%NoSave
%Mem=1900MB
#P OB98/GEN NMR

erre ene a

0 1
  C     -398.837    -270.227    -332.456
  O     -398.672    -271.413    -331.705
  H     -398.706    -269.371    -331.787
  H     -399.842    -270.187    -332.880
  H     -398.091    -270.166    -333.253
  P     -398.715    -272.824    -332.468
  C     -397.206    -274.128    -330.847
  O     -397.328    -273.566    -332.144
  C     -396.121    -273.407    -330.049
  O     -396.505    -272.016    -329.890
  C     -395.891    -273.993    -328.653
  O     -394.494    -273.938    -328.362
  C     -396.639    -273.040    -327.741
  O     -396.105    -273.021    -326.419
  C     -396.484    -271.713    -328.481
  N     -398.122    -268.459    -324.980
  C     -396.948    -269.181    -325.046
  N     -396.086    -269.038    -324.016
  N     -396.643    -269.980    -326.038
  C     -397.586    -270.016    -327.007
  C     -398.789    -269.352    -327.058
  C     -399.121    -268.482    -325.949
  O     -400.151    -267.827    -325.827
  N     -399.488    -269.673    -328.195
  C     -398.708    -270.531    -328.829
  N     -397.550    -270.780    -328.143
  O     -399.053    -272.754    -333.922
  O     -399.789    -273.677    -331.647
  H     -396.600    -272.339    -325.919
  H     -400.650    -273.679    -332.105
  H     -398.310    -267.867    -324.191
  H     -398.938    -271.001    -329.775
  H     -395.538    -271.212    -328.248
  H     -397.693    -273.336    -327.682
  H     -396.244    -268.429    -323.229
  H     -396.251    -275.022    -328.557
  H     -395.204    -269.539    -324.053
  H     -395.194    -273.415    -330.636
  H     -396.944    -275.185    -330.952
  H     -398.168    -274.053    -330.325
  P     -393.535    -275.078    -328.957
  C     -391.391    -273.756    -329.496
  O     -392.549    -274.396    -330.022
  O     -394.222    -276.319    -329.425
  O     -392.553    -275.390    -327.725
  H     -392.271    -276.324    -327.778
  H     -390.817    -273.342    -330.298
  H     -390.798    -274.471    -328.965
  H     -391.688    -272.973    -328.829

 6  7  8  9  10  11  12  13  14  15  26  29  33  34 0
 6-311+G(2d,p)
 ****
 36  38  39  40  41 0
 6-311+G(2d,p)
 ****
 1  2  3  4  5  16  17  18  19  20  21  22  23  24  25 0
 3-21G
 ****
 27  28  30  31  32  35  37  42  43  44  45  46  47 0
 3-21G
 ****
 48  49 0
 3-21G
 ****


