%nproc=1
%NoSave
%Mem=1900MB
#P OB98/GEN NMR

erre ene a

0 1
  C      -60.484    -269.804    -117.707
  O      -60.572    -268.468    -117.257
  H      -60.725    -269.834    -118.773
  H      -61.211    -270.416    -117.168
  H      -59.478    -270.202    -117.560
  P      -59.888    -268.121    -115.849
  C      -61.302    -269.632    -114.284
  O      -61.022    -268.313    -114.728
  C      -62.176    -269.599    -113.030
  O      -61.471    -268.855    -111.991
  C      -63.546    -268.929    -113.237
  O      -64.522    -269.621    -112.449
  C      -63.339    -267.552    -112.633
  O      -64.562    -266.947    -112.231
  C      -62.403    -267.888    -111.476
  N      -63.011    -263.948    -108.430
  C      -63.776    -265.084    -108.588
  N      -64.917    -265.163    -107.871
  N      -63.454    -266.064    -109.391
  C      -62.279    -265.867    -110.036
  C      -61.433    -264.788    -109.968
  C      -61.809    -263.699    -109.089
  O      -61.184    -262.658    -108.921
  N      -60.372    -264.940    -110.825
  C      -60.590    -266.100    -111.422
  N      -61.735    -266.698    -110.977
  O      -59.706    -266.532    -115.931
  O      -58.597    -268.816    -115.577
  H      -65.027    -266.633    -113.033
  H      -58.808    -266.319    -116.248
  H      -63.313    -263.214    -107.810
  H      -59.965    -266.536    -112.189
  H      -62.932    -268.336    -110.625
  H      -62.849    -266.893    -113.360
  H      -65.217    -264.464    -107.209
  H      -63.870    -268.893    -114.281
  H      -65.468    -266.009    -107.948
  H      -62.301    -270.625    -112.662
  H      -60.361    -270.139    -114.047
  H      -61.806    -270.183    -115.085
  P      -65.340    -270.813    -113.141
  C      -67.517    -269.386    -113.060
  O      -66.896    -270.637    -112.792
  O      -64.915    -272.091    -112.275
  O      -65.027    -271.002    -114.587
  H      -64.877    -272.881    -112.848
  H      -68.547    -269.430    -112.773
  H      -67.447    -269.170    -114.106
  H      -67.025    -268.617    -112.503

 6  7  8  9  10  11  12  13  14  15  26  29  33  34 0
 6-311+G(2d,p)
 ****
 36  38  39  40  41 0
 6-311+G(2d,p)
 ****
 1  2  3  4  5  16  17  18  19  20  21  22  23  24  25 0
 3-21G
 ****
 27  28  30  31  32  35  37  42  43  44  45  46  47 0
 3-21G
 ****
 48  49 0
 3-21G
 ****


