%nproc=1
%NoSave
%Mem=1900MB
#P OB98/GEN NMR

erre ene a

0 1
  C     -555.316     171.530     336.421
  O     -554.982     172.904     336.363
  H     -555.175     171.176     337.448
  H     -554.664     170.956     335.760
  H     -556.363     171.376     336.138
  P     -555.297     173.666     334.980
  C     -555.831     175.860     336.319
  O     -555.092     175.221     335.290
  C     -555.150     177.160     336.749
  O     -554.245     176.868     337.846
  C     -554.336     177.829     335.634
  O     -554.476     179.245     335.766
  C     -552.910     177.414     335.939
  O     -551.960     178.326     335.382
  C     -552.928     177.332     337.472
  N     -551.883     176.452     337.999
  C     -551.206     176.898     339.142
  O     -551.489     177.987     339.647
  N     -550.205     176.117     339.661
  C     -549.857     175.021     339.050
  N     -548.842     174.305     339.603
  C     -550.506     174.548     337.811
  C     -551.507     175.294     337.361
  O     -556.891     173.500     334.878
  O     -554.547     173.139     333.803
  H     -551.949     178.204     334.404
  H     -557.350     173.629     335.725
  H     -550.166     173.633     337.336
  H     -552.046     175.012     336.461
  H     -552.795     178.336     337.911
  H     -552.712     176.420     335.512
  H     -554.644     177.518     334.632
  H     -555.912     177.841     337.146
  H     -548.413     174.676     340.439
  H     -555.929     175.192     337.181
  H     -548.455     173.466     339.194
  H     -556.840     176.063     335.936
  P     -555.632     179.999     334.948
  C     -556.484     181.173     337.080
  O     -556.053     181.334     335.734
  O     -556.777     179.143     334.505
  O     -554.847     180.588     333.669
  H     -555.433     180.504     332.895
  H     -556.735     182.129     337.491
  H     -555.697     180.732     337.656
  H     -557.344     180.537     337.105

 6  7  8  9  10  11  12  13  14  15  16  26  30  31  32  33  35 0
 6-311+G(2d,p)
 ****
 37  38 0
 6-311+G(2d,p)
 ****
 1  2  3  4  5  17  18  19  20  21  22  23  24  25 0
 3-21G
 ****
 27  28  29  34  36  39  40  41  42  43  44  45  46 0
 3-21G
 ****


