%nproc=1
%NoSave
%Mem=1900MB
#P OB98/GEN NMR

erre ene a

0 1
  C      987.458    -897.850    -866.157
  O      988.162    -896.660    -866.549
  P      989.503    -896.320    -865.720
  C      991.011    -896.020    -867.828
  O      990.775    -896.750    -866.629
  C      992.324    -896.450    -868.499
  O      993.427    -896.140    -867.616
  C      992.418    -897.950    -868.821
  O      993.104    -898.090    -870.072
  C      993.308    -898.490    -867.726
  O      993.942    -899.720    -868.117
  C      994.261    -897.320    -867.541
  N      998.682    -898.350    -865.300
  C      998.360    -898.280    -866.640
  N      999.372    -898.570    -867.499
  N      997.177    -897.980    -867.085
  C      996.290    -897.690    -866.112
  C      996.475    -897.700    -864.746
  C      997.785    -898.080    -864.266
  O      998.121    -898.190    -863.090
  N      995.340    -897.350    -864.072
  C      994.440    -897.130    -865.027
  N      994.978    -897.330    -866.288
  O      989.492    -897.400    -864.544
  O      989.548    -894.940    -865.191
  H      994.505    -900.000    -867.385
  H      989.527    -896.960    -863.682
  H      999.606    -898.600    -865.001
  H      993.419    -896.850    -864.874
  H      995.001    -897.260    -868.353
  H      992.707    -898.690    -866.838
  H     1000.313    -898.750    -867.224
  H      991.448    -898.460    -868.872
  H      999.159    -898.500    -868.499
  H      992.451    -895.850    -869.399
  H      991.060    -894.960    -867.599
  H      990.169    -896.180    -868.503
  P      992.238    -898.540    -871.345
  C      993.028    -896.360    -872.530
  O      991.933    -897.190    -872.162
  O      990.812    -898.910    -870.700
  O      992.810    -899.670    -872.130
  H      990.344    -899.560    -871.263
  H      993.983    -896.850    -872.376
  H      993.002    -895.440    -871.940
  H      992.927    -896.100    -873.595
  H      986.592    -897.971    -866.773
  H      987.159    -897.766    -865.133
  H      988.100    -898.698    -866.273

 3  4  5  6  7  8  9  10  11  12  23  26  30  31  33  0
 6-311+G(2d,p)
 ****
 35  36  37  38 0
 6-311+G(2d,p)
 ****
 1  2  13  14  15  16  17  18  19  20  21  22  24  25  27  28  29 0
 3-21G
 ****
 32  34  39  40  41  42  43  44  45  46  47  48  49 0
 3-21G
 ****


