%nproc=1
%NoSave
%Mem=1900MB
#P OB98/GEN NMR

erre ene a

0 1
  C      -98.291    -270.469     176.730
  O      -98.018    -270.227     178.094
  H      -97.475    -271.062     176.311
  H      -98.347    -269.521     176.189
  H      -99.224    -271.023     176.606
  P      -99.180    -269.632     179.024
  C     -100.616    -271.540     179.999
  O      -99.459    -270.732     180.159
  C     -100.673    -272.632     181.071
  O     -102.041    -273.119     181.173
  C      -99.775    -273.842     180.777
  O      -99.350    -274.380     182.036
  C     -100.748    -274.791     180.102
  O     -100.262    -276.114     180.094
  C     -102.012    -274.538     180.929
  N     -103.224    -275.008     180.257
  C     -103.940    -276.009     180.899
  O     -103.584    -276.520     181.963
  N     -105.067    -276.446     180.259
  C     -105.499    -276.030     179.035
  O     -106.501    -276.480     178.492
  C     -104.676    -275.003     178.381
  C     -103.594    -274.543     179.012
  O     -100.399    -269.151     178.308
  O      -98.467    -268.458     179.847
  H     -100.164    -276.445     181.015
  H      -99.112    -267.757     180.056
  H     -105.605    -277.165     180.719
  H     -104.985    -274.658     177.404
  H     -102.965    -273.782     178.557
  H     -101.945    -275.046     181.900
  H     -100.910    -274.499     179.060
  H      -98.911    -273.599     180.153
  H     -100.423    -272.184     182.040
  H     -100.572    -271.999     179.005
  H     -101.511    -270.911     180.060
  P      -98.042    -273.846     182.792
  C      -98.534    -271.365     183.285
  O      -98.470    -272.687     183.816
  O      -96.913    -273.471     181.881
  O      -97.607    -275.049     183.758
  H      -96.646    -275.021     183.910
  H      -98.828    -270.685     184.057
  H      -99.250    -271.334     182.490
  H      -97.572    -271.085     182.909

 6  7  8  9  10  11  12  13  14  15  16  26  31  32  33  34  35 0
 6-311+G(2d,p)
 ****
 36  37 0
 6-311+G(2d,p)
 ****
 1  2  3  4  5  17  18  19  20  21  22  23  24  25 0
 3-21G
 ****
 27  28  29  30  38  39  40  41  42  43  44  45 0
 3-21G
 ****


