%nproc=1
%NoSave
%Mem=1900MB
#P OB98/GEN NMR

erre ene a

0 1
  C     -251.927    -369.233    -104.621
  O     -251.771    -369.887    -103.380
  H     -251.052    -369.439    -105.241
  H     -251.996    -368.154    -104.460
  H     -252.821    -369.590    -105.141
  P     -253.062    -369.980    -102.435
  C     -252.229    -372.053    -101.124
  O     -252.596    -370.684    -101.067
  C     -250.831    -372.203    -101.729
  O     -249.974    -371.168    -101.182
  C     -250.173    -373.558    -101.436
  O     -249.444    -373.977    -102.592
  C     -249.206    -373.242    -100.308
  O     -248.113    -374.157    -100.252
  C     -248.803    -371.812    -100.646
  N     -244.796    -371.156     -97.663
  C     -244.930    -371.877     -98.834
  N     -243.831    -372.529     -99.273
  N     -246.043    -371.954     -99.514
  C     -247.048    -371.222     -98.975
  C     -247.044    -370.473     -97.823
  C     -245.814    -370.420     -97.063
  O     -245.640    -369.818     -96.010
  N     -248.273    -369.906     -97.594
  C     -249.017    -370.314     -98.606
  N     -248.317    -371.108     -99.473
  O     -253.956    -371.100    -103.147
  O     -253.821    -368.706    -102.260
  H     -248.466    -375.019     -99.943
  H     -254.789    -370.704    -103.467
  H     -243.918    -371.142     -97.171
  H     -250.059    -370.071     -98.753
  H     -248.010    -371.769    -101.403
  H     -249.733    -373.285     -99.347
  H     -242.930    -372.474     -98.826
  H     -250.889    -374.333    -101.158
  H     -243.894    -373.034    -100.149
  H     -250.897    -372.025    -102.808
  H     -252.952    -372.590    -101.746
  H     -252.242    -372.476    -100.114
  P     -249.908    -375.347    -103.287
  C     -248.475    -375.565    -105.433
  O     -248.654    -375.960    -104.081
  O     -250.886    -374.852    -104.452
  O     -250.599    -376.291    -102.359
  H     -251.811    -375.063    -104.223
  H     -247.608    -376.047    -105.834
  H     -248.347    -374.504    -105.481
  H     -249.335    -375.847    -106.004

 6  7  8  9  10  11  12  13  14  15  26  29  33  34 0
 6-311+G(2d,p)
 ****
 36  38  39  40  41 0
 6-311+G(2d,p)
 ****
 1  2  3  4  5  16  17  18  19  20  21  22  23  24  25 0
 3-21G
 ****
 27  28  30  31  32  35  37  42  43  44  45  46  47 0
 3-21G
 ****
 48  49 0
 3-21G
 ****


