%nproc=1
%NoSave
%Mem=1900MB
#P OB98/GEN NMR

erre ene a

0 1
  C      261.861     234.812     326.420
  O      260.855     234.509     325.472
  H      262.807     234.339     326.125
  H      262.006     235.891     326.457
  H      261.567     234.459     327.418
  P      260.513     232.953     325.251
  C      261.526     231.097     323.725
  O      261.633     232.426     324.210
  C      262.286     230.969     322.414
  O      261.576     231.675     321.350
  C      263.683     231.606     322.453
  O      264.650     230.752     323.036
  C      263.934     231.818     320.961
  O      264.305     230.564     320.356
  C      262.557     232.285     320.464
  N      263.924     236.715     318.295
  C      264.231     235.438     317.994
  N      263.813     234.301     318.605
  C      262.982     234.614     319.630
  C      262.582     235.864     320.049
  C      263.095     236.956     319.331
  N      262.808     238.267     319.651
  N      261.740     235.768     321.138
  C      261.625     234.472     321.361
  N      262.377     233.718     320.495
  O      259.181     232.983     324.359
  O      260.374     232.134     326.475
  H      263.485     230.053     320.219
  H      258.759     232.100     324.347
  H      264.900     235.282     317.148
  H      261.008     234.013     322.149
  H      262.344     231.930     319.438
  H      264.763     232.516     320.781
  H      263.656     232.596     322.942
  H      262.355     229.914     322.133
  H      260.461     230.871     323.552
  H      263.340     238.986     319.186
  H      262.310     238.460     320.515
  H      261.933     230.400     324.457
  P      265.898     231.446     323.776
  C      268.380     231.838     323.030
  O      267.006     231.723     322.633
  O      266.531     230.244     324.617
  O      265.547     232.614     324.634
  H      266.926     230.571     325.445
  H      268.987     232.019     322.167
  H      268.692     230.929     323.501
  H      268.486     232.651     323.718

 6  7  8  9  10  11  12  13  14  15  25  28  32  33  34  35 0
 6-311+G(2d,p)
 ****
 36  39  40 0
 6-311+G(2d,p)
 ****
 1  2  3  4  5  16  17  18  19  20  21  22  23  24 0
 3-21G
 ****
 26  27  29  30  31  37  38  41  42  43  44  45  46  47 0
 3-21G
 ****
 48 0
 3-21G
 ****


