%nproc=1
%NoSave
%Mem=1900MB
#P OB98/GEN NMR

erre ene a

0 1
  C       45.347     266.666     758.589
  O       45.102     267.248     757.325
  H       45.997     267.338     759.166
  H       45.863     265.711     758.464
  H       44.417     266.512     759.152
  P       43.949     266.616     756.397
  C       42.831     267.282     754.172
  O       43.925     267.490     755.046
  C       42.942     268.172     752.929
  O       42.428     269.497     753.256
  C       44.384     268.342     752.414
  O       44.317     268.525     750.987
  C       44.801     269.644     753.087
  O       45.926     270.209     752.463
  C       43.493     270.447     752.989
  N       43.463     271.583     753.909
  C       44.183     272.709     753.538
  O       44.853     272.772     752.507
  N       44.154     273.759     754.408
  C       43.527     273.773     755.632
  O       43.569     274.737     756.380
  C       42.824     272.540     755.993
  C       42.812     271.511     755.130
  O       42.621     266.434     757.041
  O       44.569     265.226     755.891
  H       46.565     269.510     752.209
  H       43.855     264.572     755.740
  H       44.666     274.589     754.143
  H       42.331     272.515     756.958
  H       42.305     270.581     755.376
  H       43.348     270.836     751.966
  H       45.052     269.470     754.139
  H       45.037     267.509     752.667
  H       42.293     267.767     752.139
  H       41.906     267.535     754.717
  H       42.790     266.226     753.871
  P       45.050     267.527     749.974
  C       44.787     266.721     747.519
  O       44.286     267.570     748.553
  O       45.244     266.130     750.501
  O       46.463     268.209     749.658
  H       47.128     267.531     749.426
  H       44.195     266.846     746.637
  H       44.738     265.701     747.840
  H       45.803     266.980     747.306

 6  7  8  9  10  11  12  13  14  15  16  26  31  32  33  34  35 0
 6-311+G(2d,p)
 ****
 36  37 0
 6-311+G(2d,p)
 ****
 1  2  3  4  5  17  18  19  20  21  22  23  24  25 0
 3-21G
 ****
 27  28  29  30  38  39  40  41  42  43  44  45 0
 3-21G
 ****


