%nproc=1
%NoSave
%Mem=1900MB
#P OB98/GEN NMR

erre ene a

0 1
  C     -317.129     491.042     764.462
  O     -316.596     490.615     763.228
  P     -315.687     489.298     763.138
  C     -315.316     487.404     761.434
  O     -316.035     488.598     761.741
  C     -315.781     486.840     760.092
  O     -317.225     486.632     760.088
  C     -315.533     487.762     758.906
  O     -314.189     488.013     758.554
  C     -316.423     487.134     757.851
  O     -315.785     486.008     757.233
  C     -317.637     486.676     758.697
  N     -318.801     487.545     758.502
  C     -319.366     487.524     757.235
  O     -318.952     486.820     756.310
  N     -320.433     488.361     757.045
  C     -320.949     489.234     757.964
  O     -321.872     489.987     757.716
  C     -320.287     489.226     759.281
  C     -319.261     488.395     759.489
  O     -315.762     488.395     764.327
  O     -314.221     489.887     762.867
  H     -315.002     486.346     756.753
  H     -314.142     490.409     762.047
  H     -320.858     488.368     756.121
  H     -320.679     489.897     760.034
  H     -318.758     488.371     760.452
  H     -317.926     485.653     758.418
  H     -316.668     487.840     757.044
  H     -315.963     488.741     759.139
  H     -315.313     485.863     759.950
  H     -315.517     486.660     762.222
  H     -314.245     487.612     761.424
  P     -313.738     489.209     757.589
  C     -311.500     490.141     756.671
  O     -312.139     489.310     757.616
  O     -314.520     490.484     757.694
  O     -313.992     488.555     756.140
  H     -314.240     489.269     755.521
  H     -310.413     490.061     756.818
  H     -311.786     491.196     756.823
  H     -311.745     489.823     755.649
  H     -317.703     491.933     764.314
  H     -316.330     491.242     765.146
  H     -317.758     490.275     764.863

 3  4  5  6  7  8  9  10  11  12  13  23  28  29  30  31  32 0
 6-311+G(2d,p)
 ****
 33  34 0
 6-311+G(2d,p)
 ****
 1  2  14  15  16  17  18  19  20  21  22  24  25  26  27 0
 3-21G
 ****
 35  36  37  38  39  40  41  42  43  44  45 0
 3-21G
 ****


