%nproc=1
%NoSave
%Mem=1900MB
#P OB98/GEN NMR

erre ene a

0 1
  C      834.404     123.320     183.262
  O      835.354     122.265     183.286
  P      834.913     120.755     183.587
  C      836.393     120.950     185.681
  O      836.017     120.135     184.576
  C      837.137     120.111     186.727
  O      836.190     119.179     187.341
  C      838.292     119.280     186.137
  O      839.556     119.455     186.785
  C      837.744     117.866     186.150
  O      838.737     116.857     186.096
  C      836.856     117.899     187.402
  N      835.904     116.774     187.446
  C      836.381     115.572     187.933
  O      837.523     115.378     188.346
  N      835.485     114.529     187.895
  C      834.251     114.529     187.322
  O      833.560     113.547     187.239
  C      833.827     115.849     186.775
  C      834.645     116.902     186.887
  O      834.631     119.910     182.384
  O      833.650     120.929     184.558
  H      838.294     116.020     185.825
  H      833.837     121.408     185.389
  H      835.815     113.643     188.241
  H      832.858     115.889     186.305
  H      834.350     117.869     186.499
  H      837.451     117.879     188.310
  H      837.106     117.742     185.254
  H      838.493     119.581     185.087
  H      837.503     120.789     187.508
  H      835.495     121.371     186.138
  H      837.010     121.779     185.333
  P      840.900     119.941     186.076
  C      842.112     117.652     186.147
  O      842.095     118.997     186.560
  O      841.177     121.415     186.177
  O      840.700     119.520     184.537
  H      841.185     120.140     183.965
  H      842.643     117.058     186.909
  H      842.666     117.561     185.212
  H      841.112     117.251     186.018
  H      834.901     124.242     183.044
  H      833.924     123.390     184.216
  H      833.671     123.123     182.508

 3  4  5  6  7  8  9  10  11  12  13  23  28  29  30  31  32 0
 6-311+G(2d,p)
 ****
 33  34 0
 6-311+G(2d,p)
 ****
 1  2  14  15  16  17  18  19  20  21  22  24  25  26  27 0
 3-21G
 ****
 35  36  37  38  39  40  41  42  43  44  45 0
 3-21G
 ****


