%nproc=1
%NoSave
%Mem=1900MB
#P OB98/GEN NMR

erre ene a

0 1
  C     -909.536    -359.161     275.891
  O     -908.830    -358.234     276.730
  P     -909.408    -357.774     278.164
  C     -907.330    -358.395     279.549
  O     -908.177    -357.353     279.107
  C     -906.039    -357.849     280.197
  O     -905.169    -357.283     279.200
  C     -906.281    -356.755     281.224
  O     -906.695    -357.320     282.453
  C     -904.892    -356.076     281.247
  O     -903.996    -356.822     282.089
  C     -904.471    -356.166     279.785
  N     -902.347    -352.393     277.065
  C     -901.815    -353.478     277.639
  N     -902.436    -354.445     278.370
  C     -903.774    -354.191     278.419
  C     -904.464    -353.102     277.884
  C     -903.683    -352.174     277.173
  N     -904.217    -351.043     276.584
  N     -905.783    -353.184     278.170
  C     -905.927    -354.301     278.863
  N     -904.729    -354.951     279.027
  O     -910.357    -358.761     278.794
  O     -910.161    -356.395     277.862
  H     -903.874    -357.695     281.690
  H     -910.878    -356.253     278.521
  H     -900.744    -353.599     277.528
  H     -906.867    -354.697     279.249
  H     -903.385    -356.378     279.692
  H     -904.937    -355.067     281.653
  H     -907.026    -356.042     280.847
  H     -905.499    -358.699     280.646
  H     -907.051    -359.021     278.681
  H     -903.599    -350.398     276.123
  H     -905.208    -350.855     276.678
  H     -907.856    -359.025     280.261
  P     -908.040    -356.778     283.157
  C     -909.005    -359.106     282.747
  O     -908.844    -358.070     283.682
  O     -908.842    -355.795     282.380
  O     -907.511    -356.112     284.528
  H     -908.104    -355.404     284.805
  H     -909.814    -358.869     282.040
  H     -909.249    -360.028     283.292
  H     -908.076    -359.269     282.191
  H     -908.978    -359.326     274.993
  H     -910.497    -358.759     275.645
  H     -909.659    -360.089     276.409

 3  4  5  6  7  8  9  10  11  12  22  25  29  30  31  32 0
 6-311+G(2d,p)
 ****
 33  36  37 0
 6-311+G(2d,p)
 ****
 1  2  13  14  15  16  17  18  19  20  21  23  24  26 0
 3-21G
 ****
 27  28  34  35  38  39  40  41  42  43  44  45  46  47  48 0
 3-21G
 ****


