%nproc=1
%NoSave
%Mem=1900MB
#P OB98/GEN NMR

erre ene a

0 1
  C      -99.523    -200.327     636.091
  O     -100.194    -201.568     636.187
  P     -101.227    -202.027     635.041
  C     -101.357    -204.296     636.260
  O     -102.093    -203.213     635.700
  C     -102.219    -205.075     637.253
  O     -102.599    -204.245     638.372
  C     -103.530    -205.596     636.665
  O     -103.304    -206.742     635.868
  C     -104.336    -205.855     637.930
  O     -104.007    -207.130     638.510
  C     -103.871    -204.707     638.859
  N     -104.850    -203.623     638.927
  C     -106.176    -204.010     639.127
  O     -106.479    -205.211     639.200
  N     -107.152    -203.038     639.188
  C     -106.819    -201.788     639.049
  N     -107.827    -200.871     639.107
  C     -105.433    -201.341     638.801
  C     -104.508    -202.299     638.752
  O     -100.607    -202.339     633.723
  O     -102.268    -200.807     634.987
  H     -104.594    -207.249     639.280
  H     -101.876    -200.020     634.544
  H     -105.206    -200.292     638.677
  H     -103.463    -202.063     638.579
  H     -103.698    -205.076     639.879
  H     -105.420    -205.863     637.742
  H     -104.015    -204.804     636.083
  H     -101.624    -205.914     637.644
  H     -108.767    -201.226     639.246
  H     -100.489    -203.889     636.786
  H     -107.680    -199.885     638.966
  H     -101.004    -204.951     635.457
  P     -104.447    -207.245     634.861
  C     -103.698    -209.710     634.923
  O     -104.740    -208.787     635.200
  O     -104.211    -206.947     633.422
  O     -105.768    -206.503     635.391
  H     -106.260    -206.152     634.628
  H     -103.874    -210.629     635.492
  H     -102.727    -209.297     635.217
  H     -103.686    -209.936     633.855
  H      -98.884    -200.200     636.940
  H     -100.241    -199.534     636.064
  H      -98.936    -200.307     635.197

 3  4  5  6  7  8  9  10  11  12  13  23  27  28  29  30  32 0
 6-311+G(2d,p)
 ****
 34  35 0
 6-311+G(2d,p)
 ****
 1  2  14  15  16  17  18  19  20  21  22  24  25  26 0
 3-21G
 ****
 31  33  36  37  38  39  40  41  42  43  44  45  46 0
 3-21G
 ****


