%nproc=1
%NoSave
%Mem=1900MB
#P OB98/GEN NMR

erre ene a

0 1
  C     -894.780      39.689     422.537
  O     -895.340      39.713     423.853
  P     -894.350      39.601     425.108
  C     -896.290      39.981     426.765
  O     -895.200      39.142     426.375
  C     -897.300      39.227     427.622
  O     -898.100      38.311     426.820
  C     -896.650      38.362     428.690
  O     -896.150      39.166     429.759
  C     -897.790      37.427     429.051
  O     -898.690      38.043     429.985
  C     -898.500      37.224     427.691
  N     -898.210      35.933     427.078
  C     -899.070      34.899     427.414
  O     -900.000      35.071     428.217
  N     -898.870      33.657     426.847
  C     -897.890      33.484     426.020
  N     -897.730      32.230     425.491
  C     -896.940      34.554     425.648
  C     -897.160      35.741     426.216
  O     -893.440      40.772     425.337
  O     -893.500      38.274     424.759
  H     -898.190      38.150     430.813
  H     -892.610      38.364     425.154
  H     -896.140      34.354     424.946
  H     -896.510      36.573     425.994
  H     -899.580      37.301     427.811
  H     -897.430      36.496     429.518
  H     -895.820      37.786     428.256
  H     -897.960      39.946     428.081
  H     -898.390      31.510     425.768
  H     -896.780      40.367     425.857
  H     -897.030      32.020     424.798
  H     -895.890      40.851     427.292
  P     -894.620      38.975     430.182
  C     -894.840      40.789     432.035
  O     -894.480      39.454     431.711
  O     -893.890      40.140     429.361
  O     -894.040      37.633     429.871
  H     -893.000      39.840     429.103
  H     -894.990      40.859     433.116
  H     -895.760      41.085     431.538
  H     -894.030      41.463     431.741
  H     -895.564      39.772     421.814
  H     -894.255      38.768     422.389
  H     -894.101      40.508     422.423

 3  4  5  6  7  8  9  10  11  12  13  23  27  28  29  30  32 0
 6-311+G(2d,p)
 ****
 34  35 0
 6-311+G(2d,p)
 ****
 1  2  14  15  16  17  18  19  20  21  22  24  25  26 0
 3-21G
 ****
 31  33  36  37  38  39  40  41  42  43  44  45  46 0
 3-21G
 ****


