%nproc=1
%NoSave
%Mem=1900MB
#P OB98/GEN NMR

erre ene a

0 1
  C      -54.022    -151.941    -165.256
  O      -52.947    -152.396    -166.064
  P      -53.102    -152.260    -167.656
  C      -54.725    -153.410    -169.340
  O      -53.971    -153.522    -168.136
  C      -55.411    -154.733    -169.655
  O      -54.452    -155.719    -170.092
  C      -56.120    -155.367    -168.465
  O      -57.400    -154.798    -168.233
  C      -56.259    -156.805    -168.941
  O      -57.376    -156.921    -169.841
  C      -54.940    -157.022    -169.693
  N      -52.094    -161.184    -169.235
  C      -52.869    -160.753    -170.296
  N      -52.940    -161.584    -171.361
  N      -53.510    -159.615    -170.312
  C      -53.354    -158.896    -169.174
  C      -52.613    -159.213    -168.059
  C      -51.916    -160.481    -168.050
  O      -51.257    -160.940    -167.122
  N      -52.689    -158.228    -167.112
  C      -53.471    -157.315    -167.649
  N      -53.937    -157.690    -168.881
  O      -51.635    -152.599    -168.198
  O      -53.578    -150.929    -168.126
  H      -57.392    -157.848    -170.152
  H      -51.537    -152.286    -169.121
  H      -51.624    -162.073    -169.267
  H      -53.743    -156.374    -167.177
  H      -55.083    -157.610    -170.607
  H      -56.436    -157.508    -168.121
  H      -52.521    -162.501    -171.382
  H      -55.492    -155.339    -167.566
  H      -53.552    -161.326    -172.124
  H      -56.116    -154.559    -170.478
  H      -54.053    -153.139    -170.158
  H      -55.467    -152.613    -169.226
  P      -57.844    -154.621    -166.698
  C      -57.383    -156.197    -164.685
  O      -57.726    -156.083    -166.053
  O      -59.421    -154.370    -166.809
  O      -57.143    -153.521    -165.975
  H      -59.737    -153.858    -166.040
  H      -57.605    -157.215    -164.351
  H      -57.952    -155.497    -164.073
  H      -56.313    -156.016    -164.556
  H      -53.782    -152.093    -164.224
  H      -54.908    -152.489    -165.500
  H      -54.186    -150.899    -165.435

 3  4  5  6  7  8  9  10  11  12  23  26  30  31 0
 6-311+G(2d,p)
 ****
 33  35  36  37  38 0
 6-311+G(2d,p)
 ****
 1  2  13  14  15  16  17  18  19  20  21  22  24  25 0
 3-21G
 ****
 27  28  29  32  34  39  40  41  42  43  44  45  46  47  48  49 0
 3-21G
 ****


