%nproc=1
%NoSave
%Mem=1900MB
#P OB98/GEN NMR

erre ene a

0 1
  C       34.850    -244.629     179.748
  O       34.719    -245.889     179.112
  P       33.533    -246.068     178.046
  C       32.494    -248.214     176.932
  O       33.598    -247.599     177.574
  C       32.928    -249.528     176.277
  O       33.704    -249.253     175.091
  C       33.816    -250.407     177.147
  O       33.068    -251.096     178.138
  C       34.462    -251.305     176.100
  O       33.564    -252.364     175.726
  C       34.651    -250.329     174.920
  N       36.017    -249.820     174.808
  C       36.987    -250.740     174.423
  O       36.739    -251.920     174.185
  N       38.267    -250.258     174.340
  C       38.672    -248.994     174.658
  O       39.838    -248.628     174.608
  C       37.607    -248.074     175.089
  C       36.349    -248.522     175.142
  O       34.121    -245.237     176.812
  O       32.212    -245.602     178.553
  H       35.094    -245.220     176.817
  H       33.344    -252.843     176.549
  H       38.985    -250.901     174.042
  H       37.891    -247.065     175.358
  H       35.554    -247.863     175.467
  H       34.389    -250.819     173.975
  H       35.387    -251.770     176.454
  H       34.587    -249.794     177.631
  H       32.025    -250.074     175.973
  H       32.103    -247.535     176.168
  H       31.708    -248.397     177.672
  P       33.846    -252.243     178.957
  C       33.165    -253.679     181.032
  O       32.998    -252.490     180.293
  O       35.143    -251.446     179.451
  O       34.140    -253.463     178.147
  H       34.937    -250.549     179.763
  H       32.799    -253.515     182.050
  H       34.217    -253.977     181.079
  H       32.581    -254.481     180.572
  H       35.676    -244.656     180.427
  H       33.953    -244.406     180.287
  H       35.020    -243.873     179.010

 3  4  5  6  7  8  9  10  11  12  13  24  28  29  30  31  32 0
 6-311+G(2d,p)
 ****
 33  34 0
 6-311+G(2d,p)
 ****
 1  2  14  15  16  17  18  19  20  21  22  23  25  26  27 0
 3-21G
 ****
 35  36  37  38  39  40  41  42  43  44  45 0
 3-21G
 ****


