%nproc=1
%NoSave
%Mem=1900MB
#P OB98/GEN NMR

erre ene a

0 1
  C      435.475    -300.538      29.364
  O      436.510    -299.824      30.009
  H      435.921    -301.336      28.768
  H      434.925    -299.868      28.701
  H      434.796    -300.986      30.093
  P      436.134    -298.787      31.171
  C      435.455    -299.154      33.633
  O      436.274    -299.592      32.555
  C      436.039    -299.605      34.977
  O      436.096    -301.063      34.995
  C      437.455    -299.085      35.251
  O      437.590    -298.934      36.671
  C      438.305    -300.242      34.764
  O      439.623    -300.174      35.272
  C      437.467    -301.435      35.232
  N      437.832    -302.679      34.550
  C      438.953    -303.344      35.030
  O      439.649    -302.915      35.951
  N      439.284    -304.496      34.383
  C      438.655    -305.012      33.283
  O      439.019    -306.035      32.724
  C      437.495    -304.245      32.793
  C      437.141    -303.128      33.443
  O      434.841    -298.062      30.998
  O      437.378    -297.784      31.227
  H      440.109    -301.001      35.071
  H      437.083    -296.898      31.516
  H      440.096    -305.001      34.719
  H      436.980    -304.613      31.921
  H      436.293    -302.541      33.111
  H      437.589    -301.595      36.309
  H      438.382    -300.234      33.671
  H      437.678    -298.146      34.744
  H      435.346    -299.308      35.775
  H      434.457    -299.577      33.496
  H      435.380    -298.057      33.612
  P      437.881    -297.510      37.354
  C      436.471    -295.376      37.681
  O      436.478    -296.806      37.690
  O      438.832    -296.651      36.590
  O      438.476    -297.864      38.800
  H      439.067    -297.146      39.096
  H      435.489    -295.023      37.917
  H      436.753    -295.024      36.711
  H      437.166    -295.011      38.408

 6  7  8  9  10  11  12  13  14  15  16  26  31  32  33  34  35 0
 6-311+G(2d,p)
 ****
 36  37 0
 6-311+G(2d,p)
 ****
 1  2  3  4  5  17  18  19  20  21  22  23  24  25 0
 3-21G
 ****
 27  28  29  30  38  39  40  41  42  43  44  45 0
 3-21G
 ****


