%nproc=1
%NoSave
%Mem=1900MB
#P OB98/GEN NMR

erre ene a

0 1
  C       96.906      21.102     111.736
  O       96.782      22.496     111.962
  P       97.845      23.544     111.363
  C       98.505      24.156     108.938
  O       97.977      23.171     109.807
  C       99.352      23.501     107.843
  O      100.581      23.009     108.441
  C       98.672      22.317     107.140
  O       99.094      22.337     105.771
  C       99.254      21.116     107.861
  O       99.167      19.924     107.094
  C      100.682      21.603     108.129
  N      101.329      20.870     109.210
  C      101.379      19.479     109.114
  O      100.870      18.892     108.161
  N      102.011      18.774     110.111
  C      102.472      19.395     111.151
  N      103.138      18.660     112.082
  C      102.345      20.852     111.343
  C      101.789      21.520     110.335
  O       99.139      23.610     112.099
  O       97.048      24.926     111.308
  H       98.224      19.726     106.939
  H       97.077      25.421     112.164
  H      102.720      21.322     112.244
  H      101.676      22.595     110.378
  H      101.285      21.527     107.217
  H       98.709      20.955     108.798
  H       97.579      22.371     107.182
  H       99.629      24.271     107.114
  H      103.357      17.699     111.832
  H       99.141      24.828     109.522
  H      103.790      19.097     112.726
  H       97.688      24.744     108.504
  P       98.202      21.554     104.688
  C       95.796      21.805     103.750
  O       96.702      22.108     104.790
  O       98.071      20.104     105.365
  O       98.784      21.423     103.317
  H       97.915      19.441     104.664
  H       94.827      22.253     103.990
  H       95.665      20.720     103.658
  H       96.147      22.218     102.801
  H       96.100      20.589     112.219
  H       97.838      20.758     112.134
  H       96.874      20.907     110.684

 3  4  5  6  7  8  9  10  11  12  13  23  27  28  29  30  32 0
 6-311+G(2d,p)
 ****
 34  35 0
 6-311+G(2d,p)
 ****
 1  2  14  15  16  17  18  19  20  21  22  24  25  26 0
 3-21G
 ****
 31  33  36  37  38  39  40  41  42  43  44  45  46 0
 3-21G
 ****


