%nproc=1
%NoSave
%Mem=1900MB
#P OB98/GEN NMR

erre ene a

0 1
  C       24.817      75.857    -284.027
  O       24.886      76.181    -282.652
  H       25.222      76.683    -284.616
  H       25.425      74.966    -284.209
  H       23.787      75.651    -284.327
  P       23.842      77.267    -282.100
  C       25.524      78.623    -280.660
  O       24.404      77.750    -280.673
  C       26.376      78.378    -279.414
  O       26.930      77.033    -279.489
  C       27.549      79.359    -279.248
  O       27.686      79.668    -277.856
  C       28.750      78.544    -279.694
  O       29.969      78.998    -279.115
  C       28.343      77.143    -279.245
  N       32.678      74.484    -279.290
  C       32.074      75.208    -278.325
  N       30.886      75.844    -278.380
  C       30.280      75.619    -279.559
  C       30.767      74.899    -280.636
  C       32.040      74.325    -280.476
  N       32.695      73.643    -281.478
  N       29.876      74.946    -281.691
  C       28.884      75.703    -281.266
  N       29.082      76.133    -279.984
  O       22.574      76.362    -281.719
  O       23.485      78.358    -283.052
  H       29.927      78.869    -278.148
  H       22.001      76.257    -282.501
  H       32.618      75.297    -277.388
  H       28.019      75.991    -281.848
  H       28.524      76.973    -278.177
  H       28.843      78.598    -280.786
  H       27.435      80.285    -279.822
  H       25.721      78.407    -278.534
  H       25.170      79.659    -280.650
  H       33.649      73.362    -281.306
  H       32.283      73.613    -282.398
  H       26.117      78.463    -281.565
  P       27.657      81.215    -277.438
  C       29.569      80.994    -275.679
  O       28.214      81.349    -275.942
  O       26.094      81.525    -277.279
  O       28.300      82.126    -278.435
  H       25.906      82.445    -277.531
  H       29.781      81.140    -274.640
  H       30.219      81.609    -276.265
  H       29.724      79.967    -275.934

 6  7  8  9  10  11  12  13  14  15  25  28  32  33  34  35 0
 6-311+G(2d,p)
 ****
 36  39  40 0
 6-311+G(2d,p)
 ****
 1  2  3  4  5  16  17  18  19  20  21  22  23  24 0
 3-21G
 ****
 26  27  29  30  31  37  38  41  42  43  44  45  46  47 0
 3-21G
 ****
 48 0
 3-21G
 ****


