%nproc=1
%NoSave
%Mem=1900MB
#P OB98/GEN NMR

erre ene a

0 1
  C      -63.718     -83.132      72.105
  O      -63.462     -83.841      70.909
  H      -64.682     -82.624      72.008
  H      -62.944     -82.378      72.265
  H      -63.763     -83.811      72.959
  P      -62.176     -84.792      70.832
  C      -62.701     -86.499      72.696
  O      -62.638     -86.259      71.296
  C      -63.618     -87.688      73.003
  O      -64.987     -87.303      72.723
  C      -63.304     -88.938      72.173
  O      -63.499     -90.098      72.983
  C      -64.345     -88.899      71.070
  O      -64.630     -90.195      70.549
  C      -65.532     -88.251      71.781
  N      -68.694     -88.976      67.906
  C      -68.020     -89.891      68.689
  N      -68.197     -91.196      68.386
  N      -67.236     -89.560      69.681
  C      -67.168     -88.221      69.886
  C      -67.787     -87.213      69.181
  C      -68.634     -87.595      68.072
  O      -69.245     -86.828      67.332
  N      -67.454     -85.977      69.682
  C      -66.637     -86.239      70.686
  N      -66.421     -87.584      70.842
  O      -60.961     -84.270      71.534
  O      -61.913     -84.975      69.265
  H      -65.262     -90.072      69.806
  H      -61.145     -84.449      68.975
  H      -69.276     -89.285      67.147
  H      -66.172     -85.498      71.321
  H      -66.139     -88.979      72.333
  H      -63.987     -88.269      70.245
  H      -68.805     -91.525      67.650
  H      -62.286     -88.930      71.782
  H      -67.738     -91.890      68.963
  H      -63.560     -87.905      74.077
  H      -63.092     -85.598      73.182
  H      -61.691     -86.695      73.075
  P      -62.546     -91.371      72.763
  C      -60.220     -90.540      73.475
  O      -61.353     -91.318      73.837
  O      -62.113     -91.610      71.353
  O      -63.448     -92.586      73.298
  H      -63.259     -93.380      72.759
  H      -59.495     -90.578      74.261
  H      -60.520     -89.525      73.316
  H      -59.792     -90.931      72.576

 6  7  8  9  10  11  12  13  14  15  26  29  33  34 0
 6-311+G(2d,p)
 ****
 36  38  39  40  41 0
 6-311+G(2d,p)
 ****
 1  2  3  4  5  16  17  18  19  20  21  22  23  24  25 0
 3-21G
 ****
 27  28  30  31  32  35  37  42  43  44  45  46  47 0
 3-21G
 ****
 48  49 0
 3-21G
 ****


