%nproc=1
%NoSave
%Mem=1900MB
#P OB98/GEN NMR

erre ene a

0 1
  C      132.934     412.211     274.928
  O      131.750     411.411     274.961
  P      130.325     412.143     275.055
  C      129.826     411.483     277.498
  O      129.432     411.358     276.137
  C      128.993     410.567     278.392
  O      127.641     411.054     278.547
  C      128.849     409.154     277.840
  O      130.055     408.424     278.007
  C      127.658     408.639     278.638
  O      128.072     408.174     279.935
  C      126.792     409.915     278.778
  N      125.634     409.919     277.899
  C      124.585     409.073     278.263
  O      124.679     408.349     279.255
  N      123.453     409.063     277.483
  C      123.382     409.816     276.429
  N      122.233     409.762     275.696
  C      124.475     410.714     276.002
  C      125.561     410.705     276.768
  O      129.650     412.418     273.751
  O      130.680     413.510     275.822
  H      127.281     407.750     280.329
  H      130.057     414.203     275.530
  H      124.367     411.329     275.122
  H      126.417     411.335     276.530
  H      126.424     410.008     279.814
  H      127.167     407.800     278.137
  H      128.587     409.203     276.774
  H      129.468     410.533     279.385
  H      121.508     409.136     276.003
  H      129.708     412.526     277.818
  H      122.065     410.350     274.889
  H      130.894     411.252     277.582
  P      130.850     407.996     276.682
  C      129.591     405.724     276.701
  O      130.836     406.394     276.600
  O      132.375     408.328     277.058
  O      130.430     408.717     275.442
  H      132.848     408.620     276.256
  H      129.706     404.709     276.315
  H      128.820     406.235     276.121
  H      129.288     405.675     277.751
  H      133.792     411.575     274.865
  H      132.991     412.800     275.819
  H      132.905     412.856     274.075

 3  4  5  6  7  8  9  10  11  12  13  23  27  28  29  30  32 0
 6-311+G(2d,p)
 ****
 34  35 0
 6-311+G(2d,p)
 ****
 1  2  14  15  16  17  18  19  20  21  22  24  25  26 0
 3-21G
 ****
 31  33  36  37  38  39  40  41  42  43  44  45  46 0
 3-21G
 ****


