%nproc=1
%NoSave
%Mem=1900MB
#P OB98/GEN NMR

erre ene a

0 1
  C      -45.024     149.169      20.500
  O      -43.720     148.641      20.645
  H      -45.599     148.993      21.411
  H      -44.948     150.247      20.333
  H      -45.530     148.714      19.644
  P      -43.594     147.044      20.725
  C      -41.350     146.958      19.416
  O      -42.020     146.726      20.647
  C      -40.999     148.440      19.270
  O      -40.109     148.818      20.353
  C      -40.297     148.774      17.951
  O      -40.769     150.039      17.484
  C      -38.834     148.883      18.348
  O      -38.093     149.708      17.456
  C      -38.945     149.433      19.766
  N      -34.790     151.448      21.941
  C      -35.839     152.012      21.307
  N      -36.912     151.401      20.760
  C      -36.856     150.073      20.963
  C      -35.851     149.357      21.590
  C      -34.769     150.102      22.087
  N      -33.677     149.534      22.703
  N      -36.135     148.005      21.568
  C      -37.292     147.911      20.941
  N      -37.762     149.133      20.553
  O      -44.142     146.585      19.290
  O      -44.333     146.389      21.842
  H      -38.631     150.501      17.252
  H      -45.117     146.598      19.296
  H      -35.812     153.094      21.220
  H      -37.820     146.990      20.736
  H      -39.081     150.522      19.786
  H      -38.378     147.886      18.350
  H      -40.459     148.019      17.181
  H      -41.915     149.030      19.393
  H      -42.003     146.655      18.592
  H      -32.921     150.138      22.979
  H      -33.616     148.528      22.766
  H      -40.434     146.358      19.386
  P      -42.063     150.021      16.535
  C      -42.759     152.517      16.602
  O      -42.205     151.458      15.835
  O      -43.282     149.981      17.571
  O      -42.103     148.854      15.601
  H      -43.905     149.272      17.327
  H      -42.791     153.407      16.010
  H      -42.152     152.686      17.467
  H      -43.751     152.255      16.907

 6  7  8  9  10  11  12  13  14  15  25  28  32  33  34  35 0
 6-311+G(2d,p)
 ****
 36  39  40 0
 6-311+G(2d,p)
 ****
 1  2  3  4  5  16  17  18  19  20  21  22  23  24 0
 3-21G
 ****
 26  27  29  30  31  37  38  41  42  43  44  45  46  47 0
 3-21G
 ****
 48 0
 3-21G
 ****


