%nproc=1
%NoSave
%Mem=1900MB
#P OB98/GEN NMR

erre ene a

0 1
  C      319.836     -70.881    -431.028
  O      320.733     -70.306    -431.956
  H      318.809     -70.584    -431.261
  H      319.909     -71.971    -431.092
  H      320.092     -70.568    -430.012
  P      320.754     -68.705    -432.045
  C      323.342     -68.829    -431.790
  O      322.238     -68.331    -432.534
  C      324.640     -68.428    -432.483
  O      324.825     -69.216    -433.682
  C      324.672     -66.970    -432.934
  O      325.023     -66.085    -431.887
  C      325.757     -67.027    -433.997
  O      327.051     -67.081    -433.370
  C      325.444     -68.364    -434.688
  N      324.743     -66.187    -439.272
  C      325.786     -66.165    -438.410
  N      325.902     -66.789    -437.219
  C      324.798     -67.505    -436.948
  C      323.661     -67.626    -437.729
  C      323.653     -66.921    -438.945
  N      322.581     -66.914    -439.810
  N      322.727     -68.430    -437.103
  C      323.299     -68.797    -435.976
  N      324.540     -68.235    -435.821
  O      320.754     -68.237    -430.514
  O      319.664     -68.081    -432.849
  H      327.715     -67.048    -434.085
  H      320.540     -67.285    -430.449
  H      326.637     -65.563    -438.717
  H      322.858     -69.453    -435.239
  H      326.344     -68.874    -435.048
  H      325.752     -66.152    -434.653
  H      323.728     -66.674    -433.407
  H      325.475     -68.650    -431.809
  H      323.274     -69.919    -431.736
  H      322.611     -66.265    -440.578
  H      321.714     -67.334    -439.509
  H      323.313     -68.415    -430.776
  P      324.380     -64.611    -431.913
  C      325.598     -64.154    -429.666
  O      325.309     -63.694    -430.981
  O      323.045     -64.789    -431.050
  O      324.102     -64.077    -433.281
  H      322.340     -64.195    -431.371
  H      326.223     -63.442    -429.169
  H      326.103     -65.096    -429.721
  H      324.685     -64.270    -429.120

 6  7  8  9  10  11  12  13  14  15  25  28  32  33  34  35 0
 6-311+G(2d,p)
 ****
 36  39  40 0
 6-311+G(2d,p)
 ****
 1  2  3  4  5  16  17  18  19  20  21  22  23  24 0
 3-21G
 ****
 26  27  29  30  31  37  38  41  42  43  44  45  46  47 0
 3-21G
 ****
 48 0
 3-21G
 ****


