%nproc=1
%NoSave
%Mem=1900MB
#P OB98/GEN NMR

erre ene a

0 1
  C      246.611    -768.976     444.658
  O      246.020    -769.613     443.551
  H      247.213    -768.136     444.303
  H      247.271    -769.678     445.183
  H      245.849    -768.604     445.341
  P      245.015    -770.832     443.861
  C      246.562    -772.767     444.634
  O      245.708    -771.697     445.024
  C      246.981    -773.597     445.847
  O      247.787    -772.763     446.735
  C      245.794    -774.146     446.677
  O      246.172    -775.432     447.183
  C      245.730    -773.174     447.845
  O      245.061    -773.728     448.981
  C      247.219    -772.902     448.056
  N      247.440    -771.188     452.787
  C      247.248    -772.476     452.300
  N      247.078    -773.442     453.228
  N      247.213    -772.760     451.036
  C      247.418    -771.692     450.225
  C      247.627    -770.376     450.570
  C      247.633    -770.059     451.988
  O      247.787    -768.940     452.477
  N      247.775    -769.589     449.470
  C      247.657    -770.426     448.443
  N      247.446    -771.709     448.854
  O      245.174    -771.752     442.556
  O      243.599    -770.447     444.104
  H      244.198    -774.072     448.687
  H      244.488    -771.527     441.898
  H      247.447    -771.012     453.772
  H      247.718    -770.143     447.398
  H      247.729    -773.728     448.565
  H      245.201    -772.263     447.539
  H      247.137    -773.298     454.220
  H      244.860    -774.223     446.120
  H      246.979    -774.394     452.888
  H      247.629    -774.414     445.500
  H      247.467    -772.348     444.162
  H      246.044    -773.407     443.909
  P      245.482    -776.731     446.532
  C      244.547    -777.494     448.844
  O      244.270    -777.174     447.479
  O      246.581    -777.869     446.793
  O      245.164    -776.589     445.083
  H      246.504    -778.560     446.111
  H      243.638    -777.768     449.337
  H      244.974    -776.642     449.331
  H      245.236    -778.311     448.886

 6  7  8  9  10  11  12  13  14  15  26  29  33  34 0
 6-311+G(2d,p)
 ****
 36  38  39  40  41 0
 6-311+G(2d,p)
 ****
 1  2  3  4  5  16  17  18  19  20  21  22  23  24  25 0
 3-21G
 ****
 27  28  30  31  32  35  37  42  43  44  45  46  47 0
 3-21G
 ****
 48  49 0
 3-21G
 ****


