%nproc=1
%NoSave
%Mem=1900MB
#P OB98/GEN NMR

erre ene a

0 1
  C     -124.958    -872.048    -639.289
  O     -126.143    -872.805    -639.138
  H     -124.965    -871.243    -638.556
  H     -124.919    -871.609    -640.290
  H     -124.076    -872.672    -639.120
  P     -126.331    -874.137    -640.011
  C     -125.157    -875.923    -638.571
  O     -125.063    -875.070    -639.707
  C     -124.094    -877.012    -638.650
  O     -124.133    -877.654    -639.946
  C     -122.667    -876.502    -638.480
  O     -122.393    -876.210    -637.127
  C     -121.881    -877.666    -639.067
  O     -121.774    -878.740    -638.122
  C     -122.787    -878.089    -640.252
  N     -122.334    -877.533    -641.532
  C     -121.305    -878.216    -642.165
  O     -120.780    -879.222    -641.705
  N     -120.864    -877.663    -643.339
  C     -121.279    -876.479    -643.878
  O     -120.707    -875.915    -644.804
  C     -122.419    -875.844    -643.204
  C     -122.878    -876.380    -642.073
  O     -126.627    -873.927    -641.457
  O     -127.527    -874.905    -639.272
  H     -128.354    -874.763    -639.767
  H     -121.388    -879.501    -638.604
  H     -120.083    -878.125    -643.786
  H     -122.821    -874.936    -643.634
  H     -123.702    -875.908    -641.541
  H     -122.812    -879.177    -640.347
  H     -120.867    -877.382    -639.353
  H     -122.508    -875.618    -639.117
  H     -124.326    -877.774    -637.890
  H     -126.154    -876.379    -638.559
  H     -125.029    -875.324    -637.661
  P     -121.419    -875.006    -636.719
  C     -123.108    -873.349    -635.720
  O     -122.252    -873.638    -636.820
  O     -120.108    -874.987    -637.427
  O     -121.220    -875.185    -635.142
  H     -120.257    -875.207    -634.940
  H     -123.610    -872.420    -635.893
  H     -122.527    -873.279    -634.825
  H     -123.831    -874.131    -635.615

 6  7  8  9  10  11  12  13  14  15  16  27  31  32  33  34  35 0
 6-311+G(2d,p)
 ****
 36  37 0
 6-311+G(2d,p)
 ****
 1  2  3  4  5  17  18  19  20  21  22  23  24  25 0
 3-21G
 ****
 26  28  29  30  38  39  40  41  42  43  44  45 0
 3-21G
 ****


