%nproc=1
%NoSave
%Mem=1900MB
#P OB98/GEN NMR

erre ene a

0 1
  C       20.666      55.236      90.519
  O       20.345      53.900      90.833
  P       20.675      53.298      92.282
  C       22.857      51.949      92.476
  O       22.276      53.248      92.394
  C       23.212      51.443      91.080
  O       24.070      52.385      90.384
  C       24.001      50.141      91.072
  O       23.346      48.982      91.538
  C       24.520      50.118      89.644
  O       23.530      49.639      88.737
  C       24.805      51.621      89.396
  N       26.236      51.918      89.431
  C       26.865      52.041      88.196
  O       26.283      51.911      87.119
  N       28.209      52.289      88.232
  C       28.979      52.376      89.358
  O       30.189      52.559      89.314
  C       28.262      52.225      90.630
  C       26.944      52.005      90.613
  O       19.988      52.015      92.609
  O       20.305      54.505      93.270
  H       23.830      49.851      87.833
  H       20.809      55.324      93.121
  H       28.687      52.367      87.349
  H       28.840      52.303      91.542
  H       26.393      51.887      91.542
  H       24.415      51.924      88.415
  H       25.396      49.465      89.540
  H       24.874      50.269      91.729
  H       22.288      51.358      90.501
  H       22.136      51.263      92.931
  H       23.741      51.987      93.125
  P       24.113      47.634      91.937
  C       23.370      45.593      90.523
  O       24.224      46.711      90.631
  O       23.700      46.977      93.212
  O       25.627      48.162      92.092
  H       26.081      47.627      92.768
  H       23.611      45.055      89.599
  H       22.326      45.913      90.478
  H       23.518      44.913      91.367
  H       20.369      55.447      89.513
  H       21.721      55.382      90.618
  H       20.151      55.893      91.188

 3  4  5  6  7  8  9  10  11  12  13  23  28  29  30  31  32 0
 6-311+G(2d,p)
 ****
 33  34 0
 6-311+G(2d,p)
 ****
 1  2  14  15  16  17  18  19  20  21  22  24  25  26  27 0
 3-21G
 ****
 35  36  37  38  39  40  41  42  43  44  45 0
 3-21G
 ****


