%nproc=1
%NoSave
%Mem=1900MB
#P OB98/GEN NMR

erre ene a

0 1
  C       35.065     295.681    -340.975
  O       33.671     295.960    -341.033
  P       33.255     297.516    -341.084
  C       32.984     299.437    -339.351
  O       33.493     298.139    -339.619
  C       32.590     299.580    -337.880
  O       31.330     298.933    -337.587
  C       33.607     298.968    -336.926
  O       34.700     299.854    -336.743
  C       32.769     298.783    -335.658
  O       32.719     300.004    -334.890
  C       31.383     298.443    -336.217
  N       28.573     294.876    -333.964
  C       28.767     296.200    -333.611
  N       28.107     296.637    -332.522
  N       29.548     297.014    -334.276
  C       30.147     296.433    -335.351
  C       30.002     295.146    -335.805
  C       29.148     294.249    -335.059
  O       28.914     293.079    -335.342
  N       30.722     294.949    -336.958
  C       31.394     296.072    -337.127
  N       31.033     297.028    -336.207
  O       31.661     297.474    -341.233
  O       33.896     298.264    -342.209
  H       33.597     300.196    -334.527
  H       31.406     297.772    -342.128
  H       27.969     294.288    -333.411
  H       32.132     296.248    -337.891
  H       30.586     298.953    -335.662
  H       33.191     298.018    -334.998
  H       27.490     296.065    -331.963
  H       33.939     297.994    -337.303
  H       28.243     297.611    -332.249
  H       32.479     300.651    -337.673
  H       32.112     299.638    -339.991
  H       33.746     300.179    -339.628
  P       36.153     299.347    -337.205
  C       37.267     297.011    -337.053
  O       36.455     297.981    -336.433
  O       37.139     300.404    -336.517
  O       36.359     299.310    -338.687
  H       37.826     300.679    -337.163
  H       37.795     296.436    -336.280
  H       38.004     297.464    -337.720
  H       36.642     296.324    -337.632
  H       35.216     294.622    -340.945
  H       35.481     296.126    -340.095
  H       35.546     296.086    -341.841

 3  4  5  6  7  8  9  10  11  12  23  26  30  31 0
 6-311+G(2d,p)
 ****
 33  35  36  37  38 0
 6-311+G(2d,p)
 ****
 1  2  13  14  15  16  17  18  19  20  21  22  24  25 0
 3-21G
 ****
 27  28  29  32  34  39  40  41  42  43  44  45  46  47  48  49 0
 3-21G
 ****


