%nproc=1
%NoSave
%Mem=1900MB
#P OB98/GEN NMR

erre ene a

0 1
  C     -126.988     210.176     -41.692
  O     -126.196     209.001     -41.671
  P     -126.261     207.944     -42.868
  C     -127.268     205.597     -42.252
  O     -127.479     206.949     -42.595
  C     -126.896     205.511     -40.764
  O     -127.965     206.043     -39.954
  C     -126.648     204.067     -40.329
  O     -125.264     203.758     -40.395
  C     -127.205     204.047     -38.919
  O     -126.245     204.584     -37.988
  C     -128.418     205.001     -39.050
  N     -129.682     204.453     -39.581
  C     -130.267     203.355     -38.959
  O     -129.812     202.810     -37.957
  N     -131.409     202.872     -39.556
  C     -132.017     203.405     -40.657
  O     -132.880     202.834     -41.315
  C     -131.509     204.709     -41.095
  C     -130.369     205.154     -40.562
  O     -124.973     207.029     -42.614
  O     -126.273     208.527     -44.243
  H     -125.499     203.955     -37.953
  H     -124.237     207.307     -43.190
  H     -131.760     201.992     -39.195
  H     -132.045     205.236     -41.871
  H     -129.952     206.099     -40.896
  H     -128.649     205.474     -38.087
  H     -127.410     203.029     -38.590
  H     -127.237     203.377     -40.949
  H     -126.001     206.123     -40.587
  H     -126.467     205.173     -42.870
  H     -128.172     205.011     -42.450
  P     -124.805     202.234     -40.583
  C     -123.698     201.248     -38.489
  O     -124.920     201.576     -39.125
  O     -123.497     202.035     -41.274
  O     -126.020     201.584     -41.407
  H     -125.798     201.557     -42.359
  H     -123.904     200.984     -37.450
  H     -123.012     202.101     -38.512
  H     -123.239     200.391     -38.992
  H     -126.801     210.748     -40.807
  H     -128.023     209.908     -41.731
  H     -126.738     210.759     -42.553

 3  4  5  6  7  8  9  10  11  12  13  23  28  29  30  31  32 0
 6-311+G(2d,p)
 ****
 33  34 0
 6-311+G(2d,p)
 ****
 1  2  14  15  16  17  18  19  20  21  22  24  25  26  27 0
 3-21G
 ****
 35  36  37  38  39  40  41  42  43  44  45 0
 3-21G
 ****


