%nproc=1
%NoSave
%Mem=1900MB
#P OB98/GEN NMR

erre ene a

0 1
  C       53.173     265.277     819.884
  O       54.559     265.402     820.146
  P       55.508     266.272     819.191
  C       56.021     266.270     816.649
  O       55.321     265.647     817.718
  C       56.606     265.202     815.737
  O       55.602     264.243     815.378
  C       57.172     265.730     814.419
  O       58.427     266.360     814.609
  C       57.203     264.462     813.581
  O       58.360     263.674     813.905
  C       55.928     263.737     814.054
  N       54.801     263.905     813.139
  C       54.482     262.821     812.339
  O       55.118     261.767     812.391
  N       53.409     262.921     811.462
  C       52.742     264.024     811.405
  N       51.663     264.052     810.581
  C       53.075     265.231     812.186
  C       54.112     265.098     813.030
  O       56.923     266.391     819.632
  O       54.766     267.692     819.055
  H       59.131     264.250     813.829
  H       55.014     268.334     819.770
  H       52.490     266.136     812.089
  H       54.388     265.919     813.671
  H       56.105     262.671     814.180
  H       57.220     264.652     812.509
  H       56.471     266.445     813.977
  H       57.401     264.668     816.299
  H       51.358     263.164     810.184
  H       56.833     266.872     817.064
  H       50.929     264.758     810.677
  H       55.324     266.916     816.098
  P       59.201     266.918     813.307
  C       60.873     265.900     811.611
  O       60.043     265.669     812.751
  O       60.282     267.915     813.921
  O       58.307     267.587     812.312
  H       59.993     268.840     813.809
  H       61.558     265.044     811.524
  H       61.469     266.814     811.750
  H       60.260     265.967     810.711
  H       52.723     264.660     820.633
  H       53.031     264.831     818.922
  H       52.718     266.245     819.899

 3  4  5  6  7  8  9  10  11  12  13  23  27  28  29  30  32 0
 6-311+G(2d,p)
 ****
 34  35 0
 6-311+G(2d,p)
 ****
 1  2  14  15  16  17  18  19  20  21  22  24  25  26 0
 3-21G
 ****
 31  33  36  37  38  39  40  41  42  43  44  45  46 0
 3-21G
 ****


