%nproc=1
%NoSave
%Mem=1900MB
#P OB98/GEN NMR

erre ene a

0 1
  C       44.325     263.184    -189.374
  O       43.521     262.018    -189.443
  P       43.950     260.882    -190.500
  C       44.207     258.771    -189.007
  O       44.865     259.829    -189.702
  C       45.163     257.603    -188.768
  O       45.655     257.126    -190.055
  C       46.393     257.945    -187.909
  O       46.698     256.771    -187.138
  C       47.456     258.193    -188.970
  O       48.784     258.163    -188.467
  C       47.098     257.121    -189.978
  N       51.417     256.967    -192.716
  C       51.143     256.592    -191.446
  N       49.969     256.663    -190.785
  C       48.997     257.154    -191.583
  C       49.129     257.579    -192.893
  C       50.412     257.466    -193.469
  N       50.684     257.854    -194.764
  N       47.925     258.040    -193.377
  C       47.079     257.905    -192.379
  N       47.685     257.353    -191.284
  O       45.006     261.637    -191.436
  O       42.819     260.294    -191.285
  H       49.430     258.228    -189.202
  H       44.904     261.374    -192.362
  H       51.980     256.207    -190.879
  H       46.041     258.198    -192.388
  H       47.413     256.120    -189.641
  H       47.301     259.196    -189.397
  H       46.228     258.783    -187.230
  H       44.607     256.779    -188.311
  H       43.362     258.402    -189.606
  H       51.656     257.922    -195.016
  H       49.989     258.407    -195.237
  H       43.814     259.151    -188.063
  P       47.346     256.960    -185.685
  C       44.983     256.709    -184.697
  O       46.136     257.526    -184.779
  O       48.235     258.280    -185.901
  O       48.101     255.791    -185.151
  H       47.711     258.994    -186.303
  H       44.287     257.168    -183.987
  H       45.250     255.709    -184.346
  H       44.501     256.651    -185.673
  H       43.927     263.848    -188.636
  H       44.330     263.671    -190.327
  H       45.325     262.912    -189.107

 3  4  5  6  7  8  9  10  11  12  22  25  29  30  31  32 0
 6-311+G(2d,p)
 ****
 33  36  37 0
 6-311+G(2d,p)
 ****
 1  2  13  14  15  16  17  18  19  20  21  23  24  26 0
 3-21G
 ****
 27  28  34  35  38  39  40  41  42  43  44  45  46  47  48 0
 3-21G
 ****


