%nproc=1
%NoSave
%Mem=1900MB
#P OB98/GEN NMR

erre ene a

0 1
  C     -591.367     265.897     454.121
  O     -592.164     266.631     455.030
  H     -591.793     266.002     453.119
  H     -591.365     264.840     454.396
  H     -590.341     266.282     454.108
  P     -591.597     266.817     456.518
  C     -593.573     268.447     456.967
  O     -592.829     267.326     457.416
  C     -594.788     268.664     457.866
  O     -595.661     267.501     457.761
  C     -594.444     268.836     459.352
  O     -595.348     269.784     459.922
  C     -594.726     267.464     459.935
  O     -594.981     267.470     461.333
  C     -595.932     267.040     459.097
  N     -596.156     265.595     459.122
  C     -597.186     265.117     459.923
  O     -597.980     265.827     460.541
  N     -597.296     263.752     459.997
  C     -596.481     262.845     459.383
  O     -596.615     261.634     459.502
  C     -595.407     263.409     458.554
  C     -595.293     264.737     458.467
  O     -590.671     268.118     456.390
  O     -590.862     265.645     457.077
  H     -589.758     267.862     456.154
  H     -595.787     268.019     461.477
  H     -598.035     263.392     460.570
  H     -594.734     262.717     458.063
  H     -594.493     265.190     457.881
  H     -596.837     267.554     459.443
  H     -593.870     266.800     459.753
  H     -593.408     269.158     459.539
  H     -595.358     269.527     457.498
  H     -593.922     268.263     455.943
  H     -592.930     269.333     456.965
  P     -594.864     271.311     460.005
  C     -597.286     272.191     460.483
  O     -595.943     272.056     460.928
  O     -595.190     271.818     458.528
  O     -593.441     271.451     460.432
  H     -595.988     271.412     458.147
  H     -597.857     272.711     461.224
  H     -597.708     271.221     460.323
  H     -597.304     272.743     459.567

 6  7  8  9  10  11  12  13  14  15  16  27  31  32  33  34  35 0
 6-311+G(2d,p)
 ****
 36  37 0
 6-311+G(2d,p)
 ****
 1  2  3  4  5  17  18  19  20  21  22  23  24  25 0
 3-21G
 ****
 26  28  29  30  38  39  40  41  42  43  44  45 0
 3-21G
 ****


