%nproc=1
%NoSave
%Mem=1900MB
#P OB98/GEN NMR

erre ene a

0 1
  C     -161.450      -6.407      58.472
  O     -162.592      -6.189      57.663
  P     -162.379      -5.663      56.164
  C     -163.509      -7.806      55.149
  O     -162.376      -6.961      55.221
  C     -163.973      -7.950      53.697
  O     -164.276      -6.630      53.167
  C     -162.943      -8.596      52.761
  O     -163.671      -9.377      51.805
  C     -162.301      -7.395      52.089
  O     -161.682      -7.723      50.855
  C     -163.509      -6.460      51.959
  N     -163.142      -5.055      51.777
  C     -162.852      -4.622      50.489
  O     -162.862      -5.352      49.499
  N     -162.510      -3.298      50.371
  C     -162.369      -2.408      51.395
  O     -162.043      -1.238      51.233
  C     -162.642      -2.936      52.738
  C     -163.020      -4.210      52.863
  O     -160.847      -5.211      56.209
  O     -163.340      -4.597      55.761
  H     -160.297      -5.784      56.772
  H     -161.022      -8.420      51.022
  H     -162.332      -2.952      49.441
  H     -162.529      -2.264      53.581
  H     -163.226      -4.622      53.844
  H     -164.146      -6.784      51.127
  H     -161.539      -6.973      52.750
  H     -162.232      -9.229      53.295
  H     -164.909      -8.523      53.692
  H     -164.322      -7.379      55.742
  H     -163.259      -8.783      55.577
  P     -163.618     -10.981      51.940
  C     -165.827     -11.296      53.311
  O     -164.419     -11.376      53.269
  O     -162.085     -11.180      52.373
  O     -163.968     -11.731      50.697
  H     -161.819     -10.587      53.097
  H     -166.187     -11.907      54.142
  H     -166.274     -11.666      52.386
  H     -166.130     -10.259      53.477
  H     -161.757      -6.754      59.436
  H     -160.908      -5.490      58.579
  H     -160.822      -7.141      58.012

 3  4  5  6  7  8  9  10  11  12  13  24  28  29  30  31  32 0
 6-311+G(2d,p)
 ****
 33  34 0
 6-311+G(2d,p)
 ****
 1  2  14  15  16  17  18  19  20  21  22  23  25  26  27 0
 3-21G
 ****
 35  36  37  38  39  40  41  42  43  44  45 0
 3-21G
 ****


