%nproc=1
%NoSave
%Mem=1900MB
#P OB98/GEN NMR

erre ene a

0 1
  C       17.046     114.624      13.643
  O       16.913     113.228      13.827
  H       16.713     114.877      12.633
  H       18.088     114.936      13.757
  H       16.417     115.159      14.361
  P       17.573     112.572      15.137
  C       17.101     110.451      16.534
  O       16.612     111.347      15.536
  C       16.174     109.240      16.683
  O       14.950     109.630      17.340
  C       15.740     108.635      15.358
  O       16.777     107.984      14.654
  C       14.492     107.856      15.749
  O       14.768     106.542      16.227
  C       13.919     108.721      16.899
  N       12.707     109.426      16.502
  C       11.569     109.137      17.249
  O       11.551     108.326      18.176
  N       10.426     109.784      16.869
  C       10.302     110.632      15.806
  O        9.238     111.150      15.489
  C       11.534     110.878      15.035
  C       12.663     110.273      15.414
  O       17.852     113.517      16.268
  O       18.879     111.838      14.577
  H       15.095     106.023      15.467
  H       19.509     111.625      15.306
  H        9.592     109.595      17.404
  H       11.474     111.544      14.186
  H       13.587     110.438      14.863
  H       13.675     108.089      17.762
  H       13.806     107.748      14.904
  H       15.400     109.450      14.707
  H       16.676     108.497      17.313
  H       17.134     110.997      17.482
  H       18.113     110.127      16.275
  P       16.542     107.176      13.293
  C       17.978     106.409      11.266
  O       17.962     107.010      12.557
  O       15.352     107.568      12.476
  O       16.273     105.686      13.852
  H       15.626     105.263      13.257
  H       18.984     106.366      10.905
  H       17.382     106.991      10.594
  H       17.579     105.418      11.329

 6  7  8  9  10  11  12  13  14  15  16  26  31  32  33  34  35 0
 6-311+G(2d,p)
 ****
 36  37 0
 6-311+G(2d,p)
 ****
 1  2  3  4  5  17  18  19  20  21  22  23  24  25 0
 3-21G
 ****
 27  28  29  30  38  39  40  41  42  43  44  45 0
 3-21G
 ****


