%nproc=1
%NoSave
%Mem=1900MB
#P OB98/GEN NMR

erre ene a

0 1
  C     -104.815     -38.609     177.225
  O     -104.762     -38.368     178.618
  H     -105.631     -39.309     177.023
  H     -103.876     -39.052     176.879
  H     -105.008     -37.676     176.690
  P     -103.600     -37.389     179.132
  C     -105.489     -35.647     179.345
  O     -104.176     -35.913     178.862
  C     -105.610     -34.191     179.795
  O     -105.414     -33.334     178.640
  C     -106.975     -33.851     180.401
  O     -106.792     -32.946     181.490
  C     -107.702     -33.146     179.269
  O     -108.715     -32.262     179.741
  C     -106.549     -32.454     178.542
  N     -108.980     -29.275     175.376
  C     -108.710     -29.204     176.697
  N     -108.039     -30.092     177.463
  C     -107.586     -31.116     176.717
  C     -107.785     -31.326     175.362
  C     -108.527     -30.345     174.678
  N     -108.826     -30.423     173.338
  N     -107.203     -32.518     174.969
  C     -106.653     -33.009     176.062
  N     -106.875     -32.206     177.148
  O     -102.239     -37.654     178.580
  O     -103.736     -37.527     180.720
  H     -109.201     -32.709     180.463
  H     -104.670     -37.501     181.002
  H     -109.090     -28.323     177.210
  H     -106.102     -33.942     176.125
  H     -106.284     -31.490     178.993
  H     -108.179     -33.889     178.618
  H     -107.513     -34.736     180.742
  H     -104.796     -33.970     180.494
  H     -105.723     -36.310     180.186
  H     -109.350     -29.668     172.924
  H     -108.482     -31.204     172.800
  H     -106.194     -35.854     178.535
  P     -107.621     -33.198     182.839
  C     -105.693     -33.832     184.433
  O     -106.838     -34.287     183.722
  O     -109.086     -33.437     182.673
  O     -107.360     -31.846     183.663
  H     -108.175     -31.604     184.144
  H     -105.265     -34.647     184.978
  H     -105.980     -33.059     185.115
  H     -104.973     -33.448     183.741

 6  7  8  9  10  11  12  13  14  15  25  28  32  33  34  35 0
 6-311+G(2d,p)
 ****
 36  39  40 0
 6-311+G(2d,p)
 ****
 1  2  3  4  5  16  17  18  19  20  21  22  23  24 0
 3-21G
 ****
 26  27  29  30  31  37  38  41  42  43  44  45  46  47 0
 3-21G
 ****
 48 0
 3-21G
 ****


