%nproc=1
%NoSave
%Mem=1900MB
#P OB98/GEN NMR

erre ene a

0 1
  C     -144.259    -696.008      21.576
  O     -143.536    -697.212      21.299
  P     -142.411    -697.325      20.163
  C     -143.774    -698.345      18.224
  O     -143.093    -697.199      18.717
  C     -143.620    -698.504      16.708
  O     -142.251    -698.924      16.390
  C     -144.571    -699.535      16.072
  O     -144.970    -698.991      14.802
  C     -143.661    -700.746      15.900
  O     -144.145    -701.697      14.971
  C     -142.365    -700.034      15.479
  N     -141.166    -700.862      15.521
  C     -140.818    -701.566      14.356
  O     -141.532    -701.548      13.357
  N     -139.667    -702.320      14.365
  C     -138.930    -702.367      15.428
  N     -137.790    -703.119      15.361
  C     -139.258    -701.650      16.680
  C     -140.375    -700.925      16.650
  O     -141.537    -698.532      20.292
  O     -141.536    -695.985      20.290
  H     -140.602    -696.189      20.089
  H     -144.308    -701.240      14.125
  H     -138.606    -701.713      17.537
  H     -140.677    -700.355      17.517
  H     -142.490    -699.619      14.475
  H     -143.565    -701.242      16.867
  H     -145.462    -699.730      16.670
  H     -143.756    -697.521      16.243
  H     -137.592    -703.581      14.484
  H     -144.844    -698.235      18.455
  H     -137.139    -703.218      16.126
  H     -143.403    -699.229      18.745
  P     -146.450    -698.417      14.622
  C     -147.814    -700.576      14.099
  O     -147.479    -699.588      15.035
  O     -146.608    -698.401      13.025
  O     -146.699    -697.054      15.173
  H     -147.267    -697.731      12.766
  H     -147.789    -701.549      14.600
  H     -147.116    -700.606      13.251
  H     -148.825    -700.401      13.729
  H     -144.951    -696.183      22.373
  H     -144.793    -695.703      20.700
  H     -143.573    -695.238      21.862

 3  4  5  6  7  8  9  10  11  12  13  24  27  28  29  30  32 0
 6-311+G(2d,p)
 ****
 34  35 0
 6-311+G(2d,p)
 ****
 1  2  14  15  16  17  18  19  20  21  22  23  25  26 0
 3-21G
 ****
 31  33  36  37  38  39  40  41  42  43  44  45  46 0
 3-21G
 ****


