%nproc=1
%NoSave
%Mem=1900MB
#P OB98/GEN NMR

erre ene a

0 1
  C      444.748    -189.920    -416.244
  O      444.938    -189.630    -417.613
  H      445.413    -189.287    -415.653
  H      444.999    -190.966    -416.055
  H      443.715    -189.725    -415.941
  P      443.811    -190.136    -418.635
  C      442.713    -187.893    -419.342
  O      443.590    -188.951    -419.698
  C      442.373    -187.045    -420.569
  O      441.332    -186.090    -420.199
  C      443.563    -186.248    -421.131
  O      443.459    -186.210    -422.560
  C      443.309    -184.849    -420.601
  O      443.947    -183.848    -421.388
  C      441.784    -184.799    -420.650
  N      441.906    -179.819    -420.052
  C      442.374    -180.610    -421.082
  N      443.029    -179.991    -422.086
  N      442.213    -181.908    -421.123
  C      441.519    -182.399    -420.068
  C      441.011    -181.722    -418.987
  C      441.210    -180.290    -418.943
  O      440.836    -179.536    -418.048
  N      440.427    -182.590    -418.098
  C      440.606    -183.787    -418.632
  N      441.265    -183.721    -419.827
  O      442.483    -190.092    -417.739
  O      444.040    -191.488    -419.223
  H      444.909    -183.906    -421.230
  H      442.315    -190.971    -417.354
  H      442.069    -178.827    -420.059
  H      440.297    -184.722    -418.188
  H      441.401    -184.638    -421.668
  H      443.674    -184.765    -419.571
  H      443.166    -178.992    -422.138
  H      444.539    -186.645    -420.841
  H      443.345    -180.554    -422.865
  H      441.946    -187.700    -421.337
  H      443.201    -187.259    -418.595
  H      441.801    -188.312    -418.903
  P      444.531    -187.043    -423.416
  C      442.837    -188.786    -424.339
  O      443.772    -187.760    -424.634
  O      444.900    -188.260    -422.443
  O      445.744    -186.260    -423.791
  H      445.835    -188.505    -422.559
  H      442.420    -189.161    -425.250
  H      442.055    -188.390    -423.725
  H      443.331    -189.580    -423.820

 6  7  8  9  10  11  12  13  14  15  26  29  33  34 0
 6-311+G(2d,p)
 ****
 36  38  39  40  41 0
 6-311+G(2d,p)
 ****
 1  2  3  4  5  16  17  18  19  20  21  22  23  24  25 0
 3-21G
 ****
 27  28  30  31  32  35  37  42  43  44  45  46  47 0
 3-21G
 ****
 48  49 0
 3-21G
 ****


