%nproc=1
%NoSave
%Mem=1900MB
#P OB98/GEN NMR

erre ene a

0 1
  C     -755.308     696.070    -365.788
  O     -754.807     694.847    -366.342
  P     -755.766     693.554    -366.362
  C     -755.909     692.603    -368.753
  O     -756.479     693.489    -367.802
  C     -755.289     693.383    -369.918
  O     -754.266     694.305    -369.459
  C     -754.590     692.484    -370.933
  O     -755.536     691.795    -371.735
  C     -753.717     693.486    -371.667
  O     -754.475     694.174    -372.692
  C     -753.330     694.468    -370.550
  N     -751.965     694.299    -370.078
  C     -751.050     695.297    -370.461
  O     -751.415     696.228    -371.180
  N     -749.752     695.199    -370.032
  C     -749.386     694.196    -369.297
  N     -748.085     694.144    -368.896
  C     -750.315     693.114    -368.883
  C     -751.577     693.224    -369.331
  O     -756.674     693.405    -365.194
  O     -754.715     692.340    -366.452
  H     -754.796     693.497    -373.303
  H     -755.106     691.572    -366.002
  H     -749.960     692.298    -368.258
  H     -752.305     692.465    -369.069
  H     -753.429     695.500    -370.901
  H     -752.878     692.999    -372.176
  H     -753.950     691.760    -370.397
  H     -756.093     693.949    -370.412
  H     -747.484     694.897    -369.207
  H     -756.689     691.927    -369.126
  H     -747.721     693.433    -368.279
  H     -755.163     691.978    -368.256
  P     -755.785     690.233    -371.421
  C     -758.288     690.692    -370.896
  O     -757.045     690.119    -370.470
  O     -754.544     689.856    -370.459
  O     -755.795     689.357    -372.629
  H     -754.286     688.945    -370.628
  H     -759.095     690.260    -370.295
  H     -758.468     690.480    -371.964
  H     -758.254     691.768    -370.740
  H     -754.553     696.826    -365.850
  H     -755.574     695.915    -364.763
  H     -756.172     696.383    -366.337

 3  4  5  6  7  8  9  10  11  12  13  23  27  28  29  30  32 0
 6-311+G(2d,p)
 ****
 34  35 0
 6-311+G(2d,p)
 ****
 1  2  14  15  16  17  18  19  20  21  22  24  25  26 0
 3-21G
 ****
 31  33  36  37  38  39  40  41  42  43  44  45  46 0
 3-21G
 ****


