%nproc=1
%NoSave
%Mem=1900MB
#P OB98/GEN NMR

erre ene a

0 1
  C      321.431     -90.953     322.664
  O      321.504     -91.208     321.272
  P      322.698     -90.702     320.348
  C      323.835     -88.418     319.835
  O      322.687     -89.088     320.349
  C      323.466     -87.223     318.932
  O      322.974     -86.134     319.738
  C      324.725     -86.700     318.223
  O      325.186     -87.321     317.038
  C      324.516     -85.189     318.122
  O      324.027     -84.783     316.843
  C      323.479     -84.901     319.210
  N      323.764     -80.276     321.273
  C      322.912     -80.744     320.292
  N      322.173     -79.801     319.663
  N      322.804     -81.999     319.965
  C      323.682     -82.804     320.613
  C      324.568     -82.467     321.613
  C      324.632     -81.077     322.004
  O      325.445     -80.613     322.805
  N      325.338     -83.531     321.995
  C      324.954     -84.507     321.200
  N      323.984     -84.103     320.315
  O      322.898     -91.411     319.053
  O      323.979     -91.021     321.276
  H      323.776     -83.841     316.899
  H      324.722     -91.271     320.688
  H      323.854     -79.280     321.435
  H      325.372     -85.510     321.200
  H      322.620     -84.366     318.793
  H      325.466     -84.656     318.269
  H      322.329     -78.810     319.794
  H      325.554     -86.819     318.930
  H      321.659     -80.076     318.828
  H      322.651     -87.487     318.248
  H      324.430     -89.149     319.288
  H      324.448     -88.055     320.667
  P      326.612     -87.109     316.349
  C      327.853     -85.303     315.017
  O      326.645     -85.652     315.684
  O      326.586     -88.082     315.078
  O      327.781     -87.433     317.229
  H      327.496     -88.295     314.803
  H      327.888     -84.226     314.886
  H      327.887     -85.792     314.042
  H      328.729     -85.615     315.612
  H      320.540     -91.393     323.061
  H      321.413     -89.897     322.833
  H      322.285     -91.377     323.150

 3  4  5  6  7  8  9  10  11  12  23  26  30  31 0
 6-311+G(2d,p)
 ****
 33  35  36  37  38 0
 6-311+G(2d,p)
 ****
 1  2  13  14  15  16  17  18  19  20  21  22  24  25 0
 3-21G
 ****
 27  28  29  32  34  39  40  41  42  43  44  45  46  47  48  49 0
 3-21G
 ****


