%nproc=1
%NoSave
%Mem=1900MB
#P OB98/GEN NMR

erre ene a

0 1
  C      -66.575    -386.571     343.183
  O      -67.928    -386.988     343.239
  H      -66.026    -387.050     344.001
  H      -66.514    -385.484     343.307
  H      -66.127    -386.866     342.231
  P      -68.904    -386.429     342.097
  C      -70.847    -387.565     343.406
  O      -70.375    -386.397     342.743
  C      -72.174    -387.268     344.097
  O      -72.006    -386.132     344.979
  C      -73.307    -386.893     343.150
  O      -73.886    -388.024     342.536
  C      -74.252    -386.164     344.097
  O      -75.088    -387.082     344.812
  C      -73.291    -385.463     345.062
  N      -75.774    -381.037     344.588
  C      -76.186    -382.271     344.972
  N      -75.446    -383.396     345.092
  C      -74.168    -383.155     344.772
  C      -73.606    -381.960     344.360
  C      -74.471    -380.855     344.272
  N      -74.062    -379.610     343.841
  N      -72.261    -382.126     344.077
  C      -72.015    -383.397     344.326
  N      -73.133    -384.056     344.753
  O      -68.971    -387.644     341.060
  O      -68.466    -385.157     341.448
  H      -75.586    -387.591     344.136
  H      -68.315    -387.509     340.349
  H      -77.244    -382.355     345.206
  H      -71.050    -383.880     344.212
  H      -73.624    -385.535     346.108
  H      -74.913    -385.484     343.547
  H      -72.942    -386.181     342.396
  H      -72.449    -388.133     344.711
  H      -70.111    -387.877     344.151
  H      -70.969    -388.368     342.662
  H      -74.743    -378.873     343.783
  H      -73.108    -379.496     343.503
  P      -73.951    -388.081     340.935
  C      -74.151    -390.674     340.760
  O      -74.756    -389.408     340.525
  O      -72.443    -388.414     340.514
  O      -74.446    -386.835     340.288
  H      -71.981    -387.602     340.229
  H      -74.811    -391.451     340.434
  H      -73.956    -390.787     341.806
  H      -73.231    -390.736     340.217

 6  7  8  9  10  11  12  13  14  15  25  28  32  33  34  35 0
 6-311+G(2d,p)
 ****
 36  37  40 0
 6-311+G(2d,p)
 ****
 1  2  3  4  5  16  17  18  19  20  21  22  23  24 0
 3-21G
 ****
 26  27  29  30  31  38  39 41  42  43  44  45  46  47  48 0
 3-21G
 ****


