%nproc=1
%NoSave
%Mem=1900MB
#P OB98/GEN NMR

erre ene a

0 1
  C      383.024     -71.331      57.616
  O      382.183     -71.284      58.752
  H      384.065     -71.422      57.935
  H      382.761     -72.208      57.020
  H      382.897     -70.436      57.001
  P      382.182     -69.928      59.610
  C      383.752     -68.889      61.397
  O      383.568     -69.912      60.430
  C      385.037     -69.134      62.190
  O      384.834     -70.294      63.053
  C      386.276     -69.404      61.323
  O      387.408     -68.766      61.934
  C      386.450     -70.910      61.423
  O      387.791     -71.329      61.202
  C      385.950     -71.173      62.844
  N      386.317     -75.195      65.942
  C      386.558     -73.879      66.137
  N      386.383     -72.861      65.270
  C      385.838     -73.305      64.120
  C      385.536     -74.611      63.778
  C      385.811     -75.592      64.749
  N      385.636     -76.939      64.538
  N      385.048     -74.671      62.483
  C      385.087     -73.422      62.049
  N      385.556     -72.566      63.001
  O      381.081     -70.234      60.736
  O      381.871     -68.683      58.848
  H      388.068     -71.038      60.309
  H      380.197     -69.985      60.406
  H      386.954     -73.609      67.114
  H      384.812     -73.101      61.052
  H      386.709     -70.960      63.602
  H      385.812     -71.401      60.683
  H      386.176     -69.061      60.288
  H      385.206     -68.272      62.851
  H      382.902     -68.886      62.090
  H      385.964     -77.573      65.252
  H      385.364     -77.258      63.616
  H      383.796     -67.916      60.891
  P      387.730     -67.256      61.493
  C      388.908     -66.064      59.498
  O      388.501     -67.294      60.085
  O      388.866     -66.812      62.523
  O      386.547     -66.345      61.544
  H      388.793     -65.855      62.718
  H      389.404     -66.259      58.570
  H      389.577     -65.557      60.161
  H      388.049     -65.452      59.321

 6  7  8  9  10  11  12  13  14  15  25  28  32  33  34  35 0
 6-311+G(2d,p)
 ****
 36  39  40 0
 6-311+G(2d,p)
 ****
 1  2  3  4  5  16  17  18  19  20  21  22  23  24 0
 3-21G
 ****
 26  27  29  30  31  37  38  41  42  43  44  45  46  47 0
 3-21G
 ****
 48 0
 3-21G
 ****


