%nproc=1
%NoSave
%Mem=1900MB
#P OB98/GEN NMR

erre ene a

0 1
  C     -272.038     190.277    -108.411
  O     -270.980     190.179    -107.470
  P     -271.224     190.820    -106.007
  C     -271.521     193.259    -105.169
  O     -271.039     192.408    -106.209
  C     -270.446     194.272    -104.782
  O     -270.107     195.084    -105.934
  C     -270.868     195.260    -103.698
  O     -270.759     194.699    -102.402
  C     -269.848     196.383    -103.902
  O     -268.611     196.040    -103.250
  C     -269.674     196.371    -105.440
  N     -269.447     200.900    -107.701
  C     -268.432     200.140    -107.137
  N     -267.193     200.651    -107.208
  N     -268.634     198.978    -106.555
  C     -269.929     198.580    -106.592
  C     -271.020     199.246    -107.124
  C     -270.805     200.538    -107.718
  O     -271.651     201.303    -108.176
  N     -272.176     198.516    -106.968
  C     -271.780     197.394    -106.397
  N     -270.420     197.411    -106.109
  O     -269.914     190.394    -105.201
  O     -272.485     190.378    -105.319
  H     -268.781     196.129    -102.289
  H     -270.105     190.371    -104.245
  H     -269.243     201.775    -108.161
  H     -272.433     196.553    -106.180
  H     -268.603     196.469    -105.711
  H     -270.183     197.329    -103.500
  H     -266.949     201.462    -107.767
  H     -271.876     195.644    -103.884
  H     -266.429     200.096    -106.839
  H     -269.546     193.716    -104.468
  H     -271.766     192.647    -104.279
  H     -272.440     193.764    -105.507
  P     -271.714     195.318    -101.267
  C     -271.971     197.706    -100.233
  O     -271.410     196.906    -101.264
  O     -271.067     194.791     -99.911
  O     -273.153     194.928    -101.399
  H     -271.745     194.750     -99.204
  H     -272.014     197.162     -99.284
  H     -272.981     197.999    -100.537
  H     -271.349     198.596    -100.118
  H     -271.742     189.815    -109.330
  H     -272.264     191.308    -108.587
  H     -272.905     189.782    -108.026

 3  4  5  6  7  8  9  10  11  12  23  26  30  31  33  0
 6-311+G(2d,p)
 ****
 35  36  37  38 0
 6-311+G(2d,p)
 ****
 1  2  13  14  15  16  17  18  19  20  21  22  24  25  27  28  29 0
 3-21G
 ****
 32  34  39  40  41  42  43  44  45  46  47  48  49 0
 3-21G
 ****


