%nproc=1
%NoSave
%Mem=1900MB
#P OB98/GEN NMR

erre ene a

0 1
  C      329.767     406.877      80.832
  O      330.325     405.950      79.924
  H      330.056     406.586      81.845
  H      328.675     406.869      80.763
  H      330.142     407.886      80.637
  P      330.168     406.215      78.349
  C      327.980     404.860      78.218
  O      328.601     406.122      78.017
  C      326.704     404.765      77.382
  O      326.136     403.437      77.474
  C      325.602     405.720      77.826
  O      325.883     407.044      77.406
  C      324.397     405.083      77.162
  O      324.327     405.415      75.766
  C      324.704     403.573      77.344
  N      324.003     402.987      78.498
  C      322.755     402.427      78.236
  O      322.243     402.419      77.120
  N      322.096     401.917      79.326
  C      322.518     401.994      80.625
  O      321.801     401.730      81.587
  C      323.870     402.528      80.827
  C      324.537     403.006      79.776
  O      331.052     405.404      77.462
  O      330.467     407.786      78.201
  H      331.382     407.908      77.877
  H      323.492     405.039      75.432
  H      321.171     401.554      79.155
  H      324.268     402.549      81.836
  H      325.530     403.434      79.901
  H      324.412     403.014      76.448
  H      323.451     405.401      77.614
  H      325.477     405.670      78.917
  H      326.975     404.943      76.328
  H      327.723     404.761      79.284
  H      328.684     404.065      77.947
  P      325.498     408.298      78.326
  C      323.613     409.099      76.780
  O      323.946     408.635      78.081
  O      326.412     409.479      78.203
  O      325.513     407.723      79.821
  H      326.082     408.281      80.376
  H      322.562     409.291      76.728
  H      323.875     408.354      76.058
  H      324.151     410.001      76.574

 6  7  8  9  10  11  12  13  14  15  16  27  31  32  33  34  35 0
 6-311+G(2d,p)
 ****
 36  37 0
 6-311+G(2d,p)
 ****
 1  2  3  4  5  17  18  19  20  21  22  23  24  25 0
 3-21G
 ****
 26  28  29  30  38  39  40  41  42  43  44  45 0
 3-21G
 ****


