%nproc=1
%NoSave
%Mem=1900MB
#P OB98/GEN NMR

erre ene a

0 1
  C     -154.089     337.709       1.759
  O     -154.057     337.348       0.387
  P     -155.238     336.413      -0.173
  C     -153.443     334.688      -0.946
  O     -154.581     335.463      -1.286
  C     -152.838     334.046      -2.195
  O     -153.762     333.040      -2.691
  C     -152.563     335.016      -3.352
  O     -151.409     334.523      -4.047
  C     -153.791     334.859      -4.228
  O     -153.567     335.277      -5.573
  C     -154.070     333.369      -4.064
  N     -157.713     333.508      -7.572
  C     -156.435     334.038      -7.599
  N     -156.063     334.635      -8.752
  N     -155.602     333.983      -6.595
  C     -156.112     333.339      -5.516
  C     -157.369     332.807      -5.353
  C     -158.268     332.840      -6.486
  O     -159.374     332.307      -6.532
  N     -157.546     332.315      -4.087
  C     -156.372     332.475      -3.513
  N     -155.457     333.049      -4.354
  O     -156.128     337.435      -1.021
  O     -156.032     335.681       0.864
  H     -154.428     335.256      -6.039
  H     -156.862     337.793      -0.485
  H     -158.304     333.562      -8.385
  H     -156.124     332.193      -2.503
  H     -153.443     332.747      -4.716
  H     -154.615     335.463      -3.825
  H     -156.641     334.689      -9.575
  H     -152.403     336.046      -3.029
  H     -155.120     335.005      -8.811
  H     -151.917     333.527      -1.906
  H     -153.748     333.895      -0.257
  H     -152.708     335.321      -0.441
  P     -150.102     335.449      -4.079
  C     -149.935     335.762      -6.647
  O     -149.369     335.199      -5.480
  O     -149.132     334.727      -3.024
  O     -150.333     336.873      -3.702
  H     -148.573     335.396      -2.584
  H     -149.158     335.856      -7.409
  H     -150.361     336.750      -6.454
  H     -150.722     335.097      -7.024
  H     -153.246     338.328       1.985
  H     -154.054     336.825       2.361
  H     -154.991     338.246       1.966

 3  4  5  6  7  8  9  10  11  12  23  26  30  31 0
 6-311+G(2d,p)
 ****
 33  35  36  37  38 0
 6-311+G(2d,p)
 ****
 1  2  13  14  15  16  17  18  19  20  21  22  24  25 0
 3-21G
 ****
 27  28  29  32  34  39  40  41  42  43  44  45  46  47  48  49 0
 3-21G
 ****


