%nproc=1
%NoSave
%Mem=1900MB
#P OB98/GEN NMR

erre ene a

0 1
  C     -364.892    -478.663    -601.110
  O     -363.886    -478.204    -601.992
  H     -364.994    -477.946    -600.293
  H     -364.617    -479.639    -600.696
  H     -365.845    -478.735    -601.639
  P     -363.553    -479.142    -603.251
  C     -363.907    -477.108    -604.800
  O     -363.006    -478.122    -604.369
  C     -363.174    -476.069    -605.650
  O     -362.303    -475.298    -604.790
  C     -362.311    -476.689    -606.751
  O     -362.389    -475.873    -607.923
  C     -360.905    -476.627    -606.185
  O     -359.909    -476.601    -607.201
  C     -360.972    -475.360    -605.333
  N     -355.975    -475.612    -604.321
  C     -356.655    -475.470    -605.474
  N     -357.993    -475.391    -605.656
  C     -358.635    -475.434    -604.472
  C     -358.073    -475.578    -603.219
  C     -356.674    -475.677    -603.159
  N     -355.969    -475.847    -601.993
  N     -359.063    -475.623    -602.251
  C     -360.197    -475.493    -602.912
  N     -359.989    -475.392    -604.263
  O     -364.654    -480.045    -603.695
  O     -362.216    -479.874    -602.768
  H     -359.914    -477.465    -607.660
  H     -361.600    -479.249    -602.348
  H     -356.053    -475.410    -606.378
  H     -361.190    -475.475    -602.468
  H     -360.789    -474.453    -605.917
  H     -360.724    -477.507    -605.552
  H     -362.606    -477.710    -606.993
  H     -363.911    -475.370    -606.065
  H     -364.359    -476.614    -603.931
  H     -354.967    -475.898    -602.040
  H     -356.477    -475.882    -601.113
  H     -364.698    -477.585    -605.381
  P     -363.197    -476.427    -609.190
  C     -363.877    -474.078    -610.020
  O     -363.204    -475.293    -610.329
  O     -364.522    -477.052    -608.895
  O     -362.182    -477.510    -609.798
  H     -362.697    -478.270    -610.131
  H     -363.810    -473.411    -610.854
  H     -363.422    -473.626    -609.164
  H     -364.906    -474.284    -609.810

 6  7  8  9  10  11  12  13  14  15  25  28  32  33  34  35 0
 6-311+G(2d,p)
 ****
 36  39  40 0
 6-311+G(2d,p)
 ****
 1  2  3  4  5  16  17  18  19  20  21  22  23  24 0
 3-21G
 ****
 26  27  29  30  31  37  38  41  42  43  44  45  46  47 0
 3-21G
 ****
 48 0
 3-21G
 ****


