%nproc=1
%NoSave
%Mem=1900MB
#P OB98/GEN NMR

erre ene a

0 1
  C      757.376     609.309     -38.779
  O      757.727     607.969     -38.482
  H      757.843     609.965     -38.045
  H      756.290     609.429     -38.712
  H      757.723     609.592     -39.776
  P      757.319     606.816     -39.512
  C      759.583     606.787     -40.756
  O      758.192     607.052     -40.841
  C      760.226     606.828     -42.144
  O      759.787     605.661     -42.900
  C      759.860     608.076     -42.981
  O      760.978     608.351     -43.842
  C      758.668     607.555     -43.761
  O      758.292     608.405     -44.811
  C      759.211     606.155     -44.128
  N      758.210     605.225     -44.652
  C      757.628     605.525     -45.878
  O      757.897     606.513     -46.552
  N      756.691     604.623     -46.333
  C      756.317     603.481     -45.693
  O      755.500     602.698     -46.154
  C      756.961     603.223     -44.401
  C      757.864     604.091     -43.942
  O      755.857     606.644     -39.743
  O      757.978     605.499     -38.887
  H      757.292     604.973     -38.432
  H      759.030     608.480     -45.447
  H      756.275     604.824     -47.217
  H      756.670     602.329     -43.854
  H      758.368     603.927     -42.998
  H      760.028     606.257     -44.859
  H      757.798     607.477     -43.115
  H      759.650     608.952     -42.365
  H      761.319     606.734     -42.029
  H      759.723     605.791     -40.315
  H      760.056     607.531     -40.100
  P      762.414     608.816     -43.305
  C      763.638     606.751     -44.272
  O      763.329     607.494     -43.110
  O      762.352     609.688     -42.095
  O      763.102     609.584     -44.540
  H      763.752     610.219     -44.196
  H      764.243     605.909     -44.007
  H      764.172     607.372     -44.961
  H      762.732     606.409     -44.728

 6  7  8  9  10  11  12  13  14  15  16  27  31  32  33  34  35 0
 6-311+G(2d,p)
 ****
 36  37 0
 6-311+G(2d,p)
 ****
 1  2  3  4  5  17  18  19  20  21  22  23  24  25 0
 3-21G
 ****
 26  28  29  30  38  39  40  41  42  43  44  45 0
 3-21G
 ****


