%nproc=1
%NoSave
%Mem=1900MB
#P OB98/GEN NMR

erre ene a

0 1
  C      302.081     513.667     265.899
  O      303.396     514.123     265.537
  P      304.729     513.384     266.023
  C      306.650     515.031     266.514
  O      305.997     514.228     265.532
  C      308.130     515.253     266.181
  O      308.859     514.021     266.221
  C      308.380     515.827     264.783
  O      308.136     517.223     264.771
  C      309.835     515.435     264.560
  O      310.725     516.351     265.217
  C      309.894     514.054     265.244
  N      311.790     511.862     261.001
  C      312.177     512.947     261.717
  N      311.620     513.469     262.830
  C      310.556     512.744     263.211
  C      310.024     511.625     262.582
  C      310.695     511.177     261.425
  N      310.276     510.083     260.693
  N      308.908     511.153     263.255
  C      308.785     511.971     264.282
  N      309.739     512.956     264.299
  O      304.786     511.930     265.683
  O      304.749     513.592     267.623
  H      310.436     517.258     264.991
  H      305.217     512.856     268.040
  H      313.061     513.453     261.345
  H      308.001     511.902     265.030
  H      310.854     513.900     265.763
  H      310.117     515.417     263.497
  H      307.753     515.323     264.052
  H      308.557     515.925     266.948
  H      306.559     514.532     267.484
  H      310.784     509.858     259.855
  H      309.429     509.603     260.969
  H      306.133     515.999     266.571
  P      307.787     517.955     263.390
  C      309.155     520.148     263.433
  O      307.882     519.539     263.664
  O      306.537     517.513     262.718
  O      309.080     517.687     262.475
  H      308.802     517.654     261.534
  H      309.799     519.958     264.295
  H      309.006     521.226     263.328
  H      309.612     519.754     262.525
  H      301.347     514.312     265.462
  H      301.979     513.681     266.964
  H      301.938     512.669     265.540

 3  4  5  6  7  8  9  10  11  12  22  25  29  30  31  32 0
 6-311+G(2d,p)
 ****
 33  36  37 0
 6-311+G(2d,p)
 ****
 1  2  13  14  15  16  17  18  19  20  21  23  24  26 0
 3-21G
 ****
 27  28  34  35  38  39  40  41  42  43  44  45  46  47  48 0
 3-21G
 ****


