%nproc=1
%NoSave
%Mem=1900MB
#P OB98/GEN NMR

erre ene a

0 1
  C       12.622    -223.907       2.248
  O       12.458    -223.066       1.123
  H       12.258    -224.905       1.993
  H       12.046    -223.525       3.095
  H       13.680    -223.973       2.514
  P       12.903    -221.535       1.302
  C       15.275    -221.577       0.295
  O       14.498    -221.603       1.487
  C       16.204    -220.362       0.289
  O       17.113    -220.472       1.414
  C       17.049    -220.248      -0.982
  O       17.170    -218.873      -1.343
  C       18.405    -220.785      -0.559
  O       19.467    -220.266      -1.355
  C       18.457    -220.372       0.911
  N       23.354    -221.483       1.811
  C       22.766    -220.494       1.105
  N       21.448    -220.260       0.930
  C       20.713    -221.153       1.617
  C       21.169    -222.216       2.376
  C       22.564    -222.374       2.457
  N       23.170    -223.393       3.153
  N       20.106    -222.934       2.888
  C       19.028    -222.306       2.458
  N       19.346    -221.234       1.671
  O       12.171    -220.766       2.350
  O       12.752    -220.976      -0.189
  H       19.298    -220.508      -2.289
  H       13.115    -221.602      -0.844
  H       23.442    -219.800       0.609
  H       18.005    -222.595       2.673
  H       18.806    -219.341       1.047
  H       18.414    -221.878      -0.655
  H       16.630    -220.813      -1.814
  H       15.605    -219.460       0.452
  H       14.619    -221.539      -0.582
  H       24.177    -223.423       3.172
  H       22.598    -224.056       3.655
  H       15.859    -222.501       0.253
  P       16.597    -218.403      -2.765
  C       14.238    -217.661      -2.027
  O       15.004    -218.606      -2.765
  O       17.312    -218.929      -3.963
  O       16.732    -216.807      -2.680
  H       16.988    -216.464      -3.557
  H       13.199    -217.905      -2.106
  H       14.405    -216.680      -2.421
  H       14.534    -217.687      -0.999

 6  7  8  9  10  11  12  13  14  15  25  28  32  33  34  35 0
 6-311+G(2d,p)
 ****
 36  39  40 0
 6-311+G(2d,p)
 ****
 1  2  3  4  5  16  17  18  19  20  21  22  23  24 0
 3-21G
 ****
 26  27  29  30  31  37  38  41  42  43  44  45  46  47 0
 3-21G
 ****
 48 0
 3-21G
 ****


