%nproc=1
%NoSave
%Mem=1900MB
#P OB98/GEN NMR

erre ene a

0 1
  C       24.159     -19.731     -73.815
  O       23.828     -20.932     -73.117
  P       25.049     -21.757     -72.480
  C       25.369     -23.589     -74.285
  O       25.894     -22.421     -73.671
  C       26.421     -24.305     -75.142
  O       27.628     -24.559     -74.377
  C       25.944     -25.649     -75.696
  O       26.550     -25.823     -76.979
  C       26.550     -26.650     -74.733
  O       26.631     -27.947     -75.319
  C       27.899     -25.975     -74.434
  N       28.523     -26.457     -73.204
  C       28.992     -27.771     -73.202
  O       28.810     -28.497     -74.181
  N       29.617     -28.251     -72.078
  C       29.715     -27.498     -71.027
  N       30.342     -28.031     -69.944
  C       29.182     -26.124     -70.963
  C       28.609     -25.673     -72.077
  O       24.329     -23.005     -71.783
  O       25.851     -20.971     -71.494
  H       27.166     -28.517     -74.724
  H       24.645     -23.103     -70.866
  H       29.270     -25.540     -70.059
  H       28.191     -24.679     -72.130
  H       28.605     -26.146     -75.256
  H       25.943     -26.716     -73.822
  H       24.857     -25.723     -75.787
  H       26.693     -23.641     -75.971
  H       30.701     -28.975     -70.028
  H       24.517     -23.325     -74.915
  H       30.473     -27.537     -69.075
  H       24.977     -24.253     -73.508
  P       25.922     -25.040     -78.229
  C       25.225     -27.040     -79.681
  O       24.790     -26.023     -78.800
  O       27.077     -25.214     -79.329
  O       25.547     -23.607     -78.057
  H       26.844     -24.714     -80.132
  H       24.383     -27.704     -79.892
  H       26.029     -27.623     -79.225
  H       25.567     -26.600     -80.622
  H       23.265     -19.278     -74.189
  H       24.811     -19.961     -74.632
  H       24.649     -19.054     -73.147

 3  4  5  6  7  8  9  10  11  12  13  21  23  27  28  29  30  32 0
 6-311+G(2d,p)
 ****
 34  35 0
 6-311+G(2d,p)
 ****
 1  2  14  15  16  17  18  19  20  22  24  25  26 0
 3-21G
 ****
 31  33  36  37  38  39  40  41  42  43  44  45  46 0
 3-21G
 ****


