%nproc=1
%NoSave
%Mem=1900MB
#P OB98/GEN NMR

erre ene a

0 1
  C     -257.846     -53.373    -119.863
  O     -257.034     -52.868    -118.821
  H     -258.871     -53.001    -119.764
  H     -257.439     -53.036    -120.821
  H     -257.844     -54.467    -119.844
  P     -257.532     -53.168    -117.323
  C     -259.701     -52.651    -115.997
  O     -258.892     -52.337    -117.121
  C     -260.583     -51.468    -115.632
  O     -259.771     -50.359    -115.191
  C     -261.423     -50.918    -116.777
  O     -262.579     -51.709    -117.018
  C     -261.786     -49.544    -116.229
  O     -262.891     -49.666    -115.309
  C     -260.512     -49.144    -115.472
  N     -260.031     -44.405    -117.402
  C     -261.028     -45.001    -116.712
  N     -261.092     -46.264    -116.244
  C     -259.969     -46.938    -116.533
  C     -258.868     -46.463    -117.231
  C     -258.926     -45.134    -117.683
  N     -257.910     -44.545    -118.407
  N     -257.899     -47.442    -117.329
  C     -258.400     -48.484    -116.698
  N     -259.657     -48.231    -116.207
  O     -256.475     -52.370    -116.413
  O     -257.600     -54.611    -116.944
  H     -262.593     -50.265    -114.601
  H     -256.314     -52.881    -115.597
  H     -261.896     -44.376    -116.506
  H     -257.897     -49.434    -116.568
  H     -260.749     -48.682    -114.506
  H     -262.088     -48.837    -117.007
  H     -260.822     -50.795    -117.689
  H     -261.221     -51.769    -114.788
  H     -259.056     -52.903    -115.144
  H     -257.918     -43.546    -118.528
  H     -257.079     -45.100    -118.602
  H     -260.314     -53.527    -116.240
  P     -262.906     -52.095    -118.542
  C     -262.921     -50.721    -120.746
  O     -263.045     -50.701    -119.326
  O     -264.420     -52.628    -118.464
  O     -261.994     -53.110    -119.152
  H     -264.591     -53.243    -119.201
  H     -263.035     -49.728    -121.128
  H     -263.679     -51.352    -121.161
  H     -261.956     -51.098    -121.015

 6  7  8  9  10  11  12  13  14  15  25  28  32  33  34  35 0
 6-311+G(2d,p)
 ****
 36  39  40 0
 6-311+G(2d,p)
 ****
 1  2  3  4  5  16  17  18  19  20  21  22  23  24 0
 3-21G
 ****
 26  27  29  30  31  37  38  41  42  43  44  45  46  47  48 0
 3-21G
 ****


