%nproc=1
%NoSave
%Mem=1900MB
#P OB98/GEN NMR

erre ene a

0 1
  C      222.768       8.300     142.504
  O      221.665       7.972     141.656
  P      221.391       8.973     140.431
  C      219.025       9.975     140.806
  O      219.811       8.988     140.150
  C      217.959       9.320     141.686
  O      218.414       9.112     143.036
  C      216.681      10.140     141.798
  O      215.883       9.958     140.642
  C      216.051       9.565     143.059
  O      215.302       8.366     142.771
  C      217.275       9.234     143.929
  N      217.780       9.948     148.921
  C      217.323       8.843     148.226
  N      216.977       7.767     148.965
  N      217.221       8.798     146.924
  C      217.606       9.945     146.313
  C      218.100      11.091     146.891
  C      218.206      11.131     148.336
  O      218.625      12.074     148.995
  N      218.442      12.023     145.944
  C      218.035      11.486     144.808
  N      217.580      10.198     144.971
  O      222.000       8.192     139.175
  O      222.022      10.313     140.606
  H      215.900       7.702     142.383
  H      222.807       8.645     138.863
  H      217.832       9.930     149.925
  H      218.072      11.972     143.845
  H      217.160       8.269     144.433
  H      215.349      10.264     143.519
  H      217.034       7.733     149.971
  H      216.924      11.201     141.949
  H      216.647       6.946     148.474
  H      217.733       8.338     141.249
  H      218.547      10.623     140.069
  H      219.687      10.612     141.403
  P      215.135      11.240     140.036
  C      212.896      10.137     139.325
  O      214.120      10.719     138.917
  O      216.291      11.971     139.199
  O      214.551      12.156     141.057
  H      216.260      12.930     139.369
  H      212.144      10.321     138.552
  H      212.545      10.559     140.272
  H      213.033       9.060     139.438
  H      222.852       7.567     143.279
  H      222.608       9.264     142.940
  H      223.669       8.315     141.927

 3  4  5  6  7  8  9  10  11  12  23  26  30  31 0
 6-311+G(2d,p)
 ****
 33  35  36  37  38 0
 6-311+G(2d,p)
 ****
 1  2  13  14  15  16  17  18  19  20  21  22  24  25 0
 3-21G
 ****
 27  28  29  32  34  39  40  41  42  43  44  45  46  47  48  49 0
 3-21G
 ****


