%nproc=1
%NoSave
%Mem=1900MB
#P OB98/GEN NMR

erre ene a

0 1
  C     -265.969     770.832      31.890
  O     -266.070     769.454      31.598
  H     -264.913     771.101      31.950
  H     -266.438     771.047      32.857
  H     -266.440     771.433      31.108
  P     -267.512     768.838      31.276
  C     -267.149     766.400      32.047
  O     -267.288     767.284      30.942
  C     -266.492     765.082      31.606
  O     -267.421     764.370      30.737
  C     -265.186     765.261      30.817
  O     -264.369     764.113      31.082
  C     -265.707     765.251      29.389
  O     -264.678     765.129      28.439
  C     -266.718     764.106      29.505
  N     -267.651     763.979      28.394
  C     -267.488     762.902      27.527
  O     -266.614     762.043      27.638
  N     -268.380     762.829      26.492
  C     -269.403     763.695      26.250
  O     -270.193     763.563      25.321
  C     -269.523     764.818      27.192
  C     -268.659     764.904      28.204
  O     -268.331     769.583      30.275
  O     -268.230     768.793      32.708
  H     -268.859     769.537      32.786
  H     -264.074     765.900      28.517
  H     -268.278     762.052      25.857
  H     -270.317     765.532      27.024
  H     -268.726     765.717      28.923
  H     -266.194     763.152      29.638
  H     -266.209     766.195      29.167
  H     -264.637     766.167      31.091
  H     -266.338     764.453      32.493
  H     -268.148     766.200      32.449
  H     -266.543     766.882      32.820
  P     -263.397     763.990      32.357
  C     -261.463     763.043      30.920
  O     -262.309     762.853      32.048
  O     -264.119     763.798      33.652
  O     -262.547     765.346      32.367
  H     -262.259     765.544      33.281
  H     -260.792     762.214      30.834
  H     -260.902     763.946      31.043
  H     -262.059     763.112      30.034

 6  7  8  9  10  11  12  13  14  15  16  27  31  32  33  34  35 0
 6-311+G(2d,p)
 ****
 36  37 0
 6-311+G(2d,p)
 ****
 1  2  3  4  5  17  18  19  20  21  22  23  24  25 0
 3-21G
 ****
 26  28  29  30  38  39  40  41  42  43  44  45 0
 3-21G
 ****


