%nproc=1
%NoSave
%Mem=1900MB
#P OB98/GEN NMR

erre ene a

0 1
  C     -136.658     649.293     605.797
  O     -136.883     649.391     604.403
  H     -137.492     649.767     606.320
  H     -135.733     649.812     606.062
  H     -136.597     648.244     606.099
  P     -135.779     648.717     603.453
  C     -134.533     650.839     602.594
  O     -134.519     649.713     603.461
  C     -133.735     651.992     603.212
  O     -132.389     651.518     603.518
  C     -133.583     653.209     602.281
  O     -133.493     654.392     603.091
  C     -132.234     652.940     601.639
  O     -131.732     654.106     601.033
  C     -131.470     652.412     602.847
  N     -126.481     652.973     601.968
  C     -127.425     653.842     602.389
  N     -128.735     653.607     602.609
  C     -129.033     652.318     602.374
  C     -128.179     651.323     601.941
  C     -126.843     651.693     601.727
  N     -125.875     650.817     601.280
  N     -128.868     650.130     601.784
  C     -130.104     650.408     602.125
  N     -130.251     651.720     602.491
  O     -136.398     648.897     601.988
  O     -135.449     647.293     603.755
  H     -131.643     654.830     601.681
  H     -136.914     648.104     601.747
  H     -127.085     654.855     602.575
  H     -130.935     649.706     602.122
  H     -131.200     653.206     603.552
  H     -132.314     652.175     600.855
  H     -134.407     653.315     601.570
  H     -134.198     652.277     604.170
  H     -135.569     651.145     602.435
  H     -134.085     650.565     601.635
  H     -124.951     651.171     601.122
  H     -126.135     649.865     601.058
  P     -134.756     655.376     603.184
  C     -134.232     657.007     601.217
  O     -135.092     656.005     601.746
  O     -134.148     656.632     603.973
  O     -135.939     654.828     603.919
  H     -134.766     656.912     604.676
  H     -134.594     657.318     600.259
  H     -133.244     656.610     601.114
  H     -134.212     657.846     601.880

 6  7  8  9  10  11  12  13  14  15  25  28  32  33  34  35 0
 6-311+G(2d,p)
 ****
 36  37  40 0
 6-311+G(2d,p)
 ****
 1  2  3  4  5  16  17  18  19  20  21  22  23  24 0
 3-21G
 ****
 26  27  29  30  31  38  39 41  42  43  44  45  46  47  48 0
 3-21G
 ****


