%nproc=1
%NoSave
%Mem=1900MB
#P OB98/GEN NMR

erre ene a

0 1
  C       51.428      -5.714    -470.769
  O       50.397      -4.786    -470.427
  P       50.849      -3.374    -469.835
  C       48.526      -2.520    -470.605
  O       49.489      -2.561    -469.558
  C       47.115      -2.456    -470.031
  O       47.076      -1.518    -468.950
  C       46.051      -1.994    -471.017
  O       45.618      -3.048    -471.863
  C       44.934      -1.576    -470.061
  O       44.185      -2.727    -469.650
  C       45.727      -0.978    -468.874
  N       43.607       3.305    -467.212
  C       43.250       1.997    -466.972
  N       42.197       1.794    -466.146
  N       43.871       0.972    -467.487
  C       44.924       1.313    -468.259
  C       45.379       2.580    -468.591
  C       44.655       3.714    -468.046
  O       44.879       4.892    -468.264
  N       46.485       2.542    -469.389
  C       46.736       1.250    -469.520
  N       45.792       0.466    -468.879
  O       51.483      -2.622    -471.107
  O       51.821      -3.436    -468.694
  H       43.889      -3.187    -470.459
  H       52.126      -1.952    -470.805
  H       43.099       4.059    -466.770
  H       47.581       0.837    -470.068
  H       45.302      -1.311    -467.922
  H       44.221      -0.879    -470.522
  H       41.763       2.545    -465.615
  H       46.388      -1.122    -471.587
  H       41.950       0.842    -465.927
  H       46.865      -3.450    -469.626
  H       48.622      -3.423    -471.224
  H       48.729      -1.644    -471.243
  P       44.737      -2.615    -473.145
  C       45.376      -4.844    -474.312
  O       44.340      -3.996    -473.862
  O       45.805      -1.946    -474.120
  O       43.605      -1.682    -472.830
  H       45.371      -1.313    -474.716
  H       46.234      -4.831    -473.632
  H       45.703      -4.531    -475.307
  H       44.989      -5.869    -474.378
  H       50.988      -6.611    -471.151
  H       52.006      -5.943    -469.898
  H       52.063      -5.283    -471.515

 3  4  5  6  7  8  9  10  11  12  23  26  30  31  33  0
 6-311+G(2d,p)
 ****
 35  36  37  38 0
 6-311+G(2d,p)
 ****
 1  2  13  14  15  16  17  18  19  20  21  22  24  25  27  28  29 0
 3-21G
 ****
 32  34  39  40  41  42  43  44  45  46  47  48  49 0
 3-21G
 ****


