%nproc=1
%NoSave
%Mem=1900MB
#P OB98/GEN NMR

erre ene a

0 1
  C       -4.250     325.769      26.514
  O       -5.185     325.402      27.511
  H       -3.991     324.881      25.932
  H       -3.341     326.162      26.979
  H       -4.681     326.521      25.846
  P       -5.712     326.577      28.471
  C       -4.617     328.103      30.271
  O       -4.487     326.957      29.434
  C       -4.097     327.777      31.668
  O       -5.008     326.868      32.330
  C       -2.745     327.073      31.677
  O       -1.664     327.971      31.471
  C       -2.751     326.442      33.065
  O       -2.338     327.378      34.065
  C       -4.224     326.072      33.255
  N       -4.495     321.492      35.494
  C       -4.318     322.734      35.998
  N       -4.276     323.909      35.334
  C       -4.460     323.713      34.016
  C       -4.653     322.507      33.360
  C       -4.669     321.351      34.157
  N       -4.823     320.084      33.646
  N       -4.766     322.707      31.996
  C       -4.649     324.011      31.833
  N       -4.469     324.660      33.025
  O       -6.742     325.820      29.435
  O       -6.353     327.729      27.768
  H       -3.000     328.094      34.060
  H       -7.655     325.980      29.130
  H       -4.187     322.792      37.073
  H       -4.684     324.529      30.882
  H       -4.584     326.304      34.265
  H       -2.074     325.587      33.104
  H       -2.733     326.275      30.922
  H       -4.057     328.706      32.255
  H       -5.671     328.389      30.335
  H       -4.049     328.929      29.829
  H       -4.756     319.300      34.269
  H       -4.840     319.958      32.640
  P       -0.355     327.404      30.745
  C        1.085     325.249      31.052
  O        0.195     326.186      31.634
  O        0.733     328.557      30.963
  O       -0.537     327.075      29.301
  H        1.315     328.616      30.179
  H        1.350     324.510      31.779
  H        1.968     325.754      30.719
  H        0.610     324.776      30.219

 6  7  8  9  10  11  12  13  14  15  25  28  32  33  34  35 0
 6-311+G(2d,p)
 ****
 36  37  40 0
 6-311+G(2d,p)
 ****
 1  2  3  4  5  16  17  18  19  20  21  22  23  24 0
 3-21G
 ****
 26  27  29  30  31  38  39 41  42  43  44  45  46  47  48 0
 3-21G
 ****


