%nproc=1
%NoSave
%Mem=1900MB
#P OB98/GEN NMR

erre ene a

0 1
  C     -118.328     -75.406       2.992
  O     -118.105     -76.639       2.321
  P     -116.587     -77.154       2.207
  C     -114.403     -76.170       1.211
  O     -115.803     -76.008       1.403
  C     -113.993     -75.685      -0.173
  O     -114.661     -76.466      -1.181
  C     -114.358     -74.238      -0.472
  O     -113.422     -73.329       0.088
  C     -114.291     -74.226      -1.992
  O     -112.924     -74.072      -2.416
  C     -114.810     -75.627      -2.355
  N     -118.018     -75.124      -6.240
  C     -116.638     -75.055      -6.216
  N     -116.027     -74.849      -7.402
  N     -115.925     -75.175      -5.128
  C     -116.669     -75.418      -4.024
  C     -118.039     -75.507      -3.920
  C     -118.821     -75.321      -5.124
  O     -120.047     -75.307      -5.195
  N     -118.425     -75.779      -2.633
  C     -117.294     -75.891      -1.967
  N     -116.200     -75.650      -2.762
  O     -116.689     -78.345       1.143
  O     -115.972     -77.602       3.487
  H     -112.926     -74.070      -3.392
  H     -115.955     -78.975       1.280
  H     -118.516     -75.042      -7.108
  H     -117.221     -76.143      -0.919
  H     -114.207     -76.081      -3.150
  H     -114.859     -73.404      -2.437
  H     -116.511     -74.879      -8.286
  H     -115.379     -74.014      -0.146
  H     -115.015     -74.832      -7.410
  H     -112.912     -75.841      -0.284
  H     -114.146     -77.229       1.307
  H     -113.872     -75.609       1.988
  P     -114.022     -71.979       0.720
  C     -115.767     -70.249      -0.124
  O     -114.912     -71.330      -0.443
  O     -112.746     -71.020       0.814
  O     -114.690     -72.163       2.040
  H     -112.872     -70.359       1.522
  H     -115.318     -69.592       0.626
  H     -116.718     -70.636       0.253
  H     -115.955     -69.669      -1.029
  H     -119.375     -75.186       2.994
  H     -117.800     -74.624       2.487
  H     -117.977     -75.480       4.000

 3  4  5  6  7  8  9  10  11  12  23  26  30  31  33  0
 6-311+G(2d,p)
 ****
 35  36  37  38 0
 6-311+G(2d,p)
 ****
 1  2  13  14  15  16  17  18  19  20  21  22  24  25  27  28  29 0
 3-21G
 ****
 32  34  39  40  41  42  43  44  45  46  47  48  49 0
 3-21G
 ****


