%nproc=1
%NoSave
%Mem=1900MB
#P OB98/GEN NMR

erre ene a

0 1
  C     -560.651    -503.921     289.849
  O     -561.008    -503.157     290.990
  P     -560.736    -501.576     290.933
  C     -558.520    -501.484     292.313
  O     -559.148    -501.399     291.028
  C     -557.691    -500.234     292.581
  O     -556.567    -500.184     291.682
  C     -558.444    -498.937     292.366
  O     -559.305    -498.666     293.458
  C     -557.295    -497.939     292.228
  O     -556.868    -497.462     293.519
  C     -556.195    -498.789     291.558
  N     -555.959    -498.423     290.158
  C     -554.629    -498.251     289.792
  O     -553.725    -498.405     290.629
  N     -554.349    -497.878     288.500
  C     -555.313    -497.685     287.664
  N     -554.985    -497.322     286.382
  C     -556.741    -497.839     288.022
  C     -556.995    -498.191     289.281
  O     -561.254    -501.068     292.363
  O     -561.405    -500.864     289.802
  H     -556.896    -498.243     294.106
  H     -561.532    -500.134     292.315
  H     -557.513    -497.662     287.274
  H     -558.017    -498.330     289.625
  H     -555.238    -498.677     292.097
  H     -557.583    -497.061     291.637
  H     -559.022    -498.964     291.433
  H     -557.314    -500.297     293.610
  H     -553.998    -497.224     286.168
  H     -557.868    -502.363     292.330
  H     -555.664    -497.185     285.656
  H     -559.300    -501.611     293.071
  P     -560.462    -497.572     293.250
  C     -559.152    -496.347     295.088
  O     -559.854    -496.215     293.862
  O     -561.530    -498.004     294.362
  O     -561.066    -497.468     291.891
  H     -562.341    -497.460     294.266
  H     -558.670    -495.393     295.309
  H     -558.378    -497.121     295.008
  H     -559.848    -496.594     295.892
  H     -560.885    -504.951     290.022
  H     -559.602    -503.819     289.666
  H     -561.197    -503.569     288.999

 3  4  5  6  7  8  9  10  11  12  13  21  23  27  28  29  30  32 0
 6-311+G(2d,p)
 ****
 34  35 0
 6-311+G(2d,p)
 ****
 1  2  14  15  16  17  18  19  20  22  24  25  26 0
 3-21G
 ****
 31  33  36  37  38  39  40  41  42  43  44  45  46 0
 3-21G
 ****


