%nproc=1
%NoSave
%Mem=1900MB
#P OB98/GEN NMR

erre ene a

0 1
  C       80.828    -493.957      82.852
  O       80.007    -493.661      81.728
  P       79.891    -492.121      81.275
  C       77.323    -492.501      81.202
  O       78.397    -491.679      81.653
  C       76.278    -492.669      82.297
  O       76.931    -492.886      83.563
  C       75.380    -491.463      82.502
  O       74.333    -491.410      81.553
  C       74.844    -491.732      83.906
  O       73.746    -492.657      83.827
  C       76.053    -492.382      84.597
  N       77.481    -491.324      89.338
  C       76.716    -492.364      88.859
  N       76.282    -493.269      89.767
  N       76.389    -492.508      87.600
  C       76.916    -491.553      86.800
  C       77.691    -490.473      87.161
  C       78.002    -490.299      88.562
  O       78.625    -489.360      89.057
  N       78.054    -489.729      86.063
  C       77.537    -490.382      85.039
  N       76.805    -491.478      85.440
  O       79.857    -492.219      79.680
  O       80.988    -491.237      81.760
  H       73.146    -492.332      83.133
  H       80.184    -491.382      79.292
  H       77.716    -491.275      90.315
  H       77.651    -490.099      84.006
  H       75.740    -493.248      85.200
  H       74.473    -490.827      84.399
  H       76.612    -493.285      90.723
  H       75.966    -490.532      82.508
  H       75.753    -494.063      89.434
  H       75.682    -493.558      82.064
  H       77.722    -493.491      80.930
  H       76.879    -492.050      80.306
  P       74.292    -490.121      80.587
  C       71.729    -489.873      80.963
  O       73.016    -489.280      81.064
  O       73.851    -490.734      79.175
  O       75.585    -489.376      80.513
  H       74.176    -490.169      78.450
  H       71.768    -490.950      81.179
  H       71.340    -489.717      79.955
  H       71.067    -489.399      81.681
  H       80.812    -495.011      83.038
  H       80.458    -493.438      83.711
  H       81.832    -493.645      82.652

 3  4  5  6  7  8  9  10  11  12  23  26  30  31  33  0
 6-311+G(2d,p)
 ****
 35  36  37  38 0
 6-311+G(2d,p)
 ****
 1  2  13  14  15  16  17  18  19  20  21  22  24  25  27  28  29 0
 3-21G
 ****
 32  34  39  40  41  42  43  44  45  46  47  48  49 0
 3-21G
 ****


