%nproc=1
%NoSave
%Mem=1900MB
#P OB98/GEN NMR

erre ene a

0 1
  C     -351.692      62.212     161.065
  O     -351.078      63.486     161.114
  H     -352.049      62.006     160.053
  H     -350.954      61.455     161.341
  H     -352.527      62.167     161.772
  P     -352.009      64.745     160.766
  C     -351.230      65.902     162.954
  O     -351.376      65.997     161.546
  C     -350.717      67.221     163.521
  O     -349.343      67.427     163.138
  C     -351.464      68.458     163.033
  O     -352.687      68.647     163.736
  C     -350.457      69.548     163.365
  O     -350.523      69.864     164.768
  C     -349.122      68.860     163.046
  N     -346.768      72.390     160.179
  C     -347.062      72.344     161.500
  N     -347.673      71.361     162.193
  C     -347.970      70.329     161.388
  C     -347.712      70.216     160.031
  C     -347.084      71.313     159.415
  N     -346.849      71.370     158.048
  N     -348.180      69.006     159.541
  C     -348.728      68.418     160.582
  N     -348.621      69.169     161.720
  O     -353.355      64.427     161.580
  O     -352.278      64.955     159.312
  H     -349.851      70.551     164.936
  H     -354.004      64.016     160.979
  H     -346.776      73.219     162.073
  H     -349.212      67.446     160.559
  H     -348.338      69.113     163.768
  H     -350.631      70.478     162.815
  H     -351.622      68.432     161.946
  H     -350.747      67.156     164.619
  H     -350.517      65.104     163.196
  H     -346.846      72.316     157.681
  H     -347.341      70.668     157.508
  H     -352.203      65.652     163.393
  P     -354.046      68.612     162.891
  C     -355.195      67.369     164.853
  O     -355.243      68.474     163.955
  O     -353.991      67.175     162.189
  O     -354.199      69.698     161.878
  H     -354.071      67.272     161.217
  H     -356.046      67.399     165.501
  H     -354.300      67.423     165.437
  H     -355.203      66.456     164.296

 6  7  8  9  10  11  12  13  14  15  25  28  32  33  34  35 0
 6-311+G(2d,p)
 ****
 36  39  40 0
 6-311+G(2d,p)
 ****
 1  2  3  4  5  16  17  18  19  20  21  22  23  24 0
 3-21G
 ****
 26  27  29  30  31  37  38  41  42  43  44  45  46  47  48 0
 3-21G
 ****


