%nproc=1
%NoSave
%Mem=1900MB
#P OB98/GEN NMR

erre ene a

0 1
  C      318.454     -61.048     -34.398
  O      319.078     -60.353     -35.459
  H      317.462     -60.619     -34.233
  H      319.043     -60.942     -33.483
  H      318.344     -62.105     -34.651
  P      320.548     -60.847     -35.868
  C      319.587     -61.982     -38.009
  O      320.516     -61.063     -37.457
  C      320.290     -62.932     -38.985
  O      319.359     -63.992     -39.357
  C      320.740     -62.259     -40.292
  O      321.892     -62.968     -40.778
  C      319.554     -62.531     -41.203
  O      319.885     -62.284     -42.550
  C      319.249     -63.969     -40.798
  N      316.556     -66.136     -44.563
  C      317.874     -65.877     -44.435
  N      318.520     -65.309     -43.398
  C      317.662     -65.016     -42.406
  C      316.294     -65.229     -42.389
  C      315.734     -65.815     -43.536
  N      314.389     -66.073     -43.672
  N      315.748     -64.792     -41.195
  C      316.771     -64.326     -40.507
  N      317.943     -64.433     -41.201
  O      320.612     -62.335     -35.282
  O      321.671     -60.001     -35.371
  H      319.193     -62.637     -43.150
  H      321.036     -62.328     -34.404
  H      318.493     -66.162     -45.282
  H      316.718     -63.894     -39.514
  H      319.989     -64.672     -41.198
  H      318.717     -61.870     -40.959
  H      320.985     -61.201     -40.174
  H      321.129     -63.414     -38.473
  H      318.810     -61.416     -38.535
  H      319.125     -62.563     -37.205
  H      314.066     -66.481     -44.535
  H      313.763     -65.823     -42.922
  P      323.353     -62.527     -40.271
  C      324.187     -64.348     -38.588
  O      324.193     -63.846     -39.916
  O      323.034     -61.936     -38.813
  O      324.052     -61.510     -41.110
  H      323.700     -61.262     -38.581
  H      324.796     -65.226     -38.536
  H      323.185     -64.592     -38.303
  H      324.575     -63.604     -37.924

 6  7  8  9  10  11  12  13  14  15  25  28  32  33  34  35 0
 6-311+G(2d,p)
 ****
 36  37  40 0
 6-311+G(2d,p)
 ****
 1  2  3  4  5  16  17  18  19  20  21  22  23  24 0
 3-21G
 ****
 26  27  29  30  31  38  39 41  42  43  44  45  46  47  48 0
 3-21G
 ****


