%nproc=1
%NoSave
%Mem=1900MB
#P OB98/GEN NMR

erre ene a

0 1
  C      -37.039     -22.664      92.785
  O      -37.928     -21.631      93.157
  H      -36.733     -22.508      91.747
  H      -37.534     -23.636      92.863
  H      -36.152     -22.645      93.422
  P      -38.547     -21.705      94.634
  C      -40.231     -23.495      93.793
  O      -39.257     -23.137      94.763
  C      -41.505     -23.956      94.491
  O      -41.222     -25.107      95.318
  C      -42.108     -22.920      95.430
  O      -42.831     -21.921      94.735
  C      -42.998     -23.799      96.294
  O      -44.267     -24.039      95.667
  C      -42.177     -25.102      96.399
  N      -41.532     -25.242      97.700
  C      -42.256     -25.939      98.662
  O      -43.372     -26.414      98.452
  N      -41.672     -26.040      99.894
  C      -40.478     -25.491     100.261
  O      -40.044     -25.556     101.404
  C      -39.749     -24.778      99.198
  C      -40.305     -24.679      97.988
  O      -39.771     -20.676      94.565
  O      -37.595     -21.376      95.735
  H      -39.528     -19.841      95.005
  H      -44.072     -24.467      94.811
  H      -42.186     -26.531     100.607
  H      -38.794     -24.336      99.454
  H      -39.795     -24.140      97.195
  H      -42.826     -25.975      96.250
  H      -43.204     -23.335      97.258
  H      -41.327     -22.480      96.062
  H      -42.233     -24.254      93.725
  H      -39.847     -24.312      93.173
  H      -40.428     -22.630      93.151
  P      -42.737     -20.406      95.254
  C      -45.132     -20.639      96.307
  O      -43.774     -20.277      96.471
  O      -43.443     -19.623      94.054
  O      -41.348     -19.964      95.566
  H      -44.177     -20.120      93.655
  H      -45.656     -20.482      97.226
  H      -45.195     -21.671      96.032
  H      -45.571     -20.038      95.539

 6  7  8  9  10  11  12  13  14  15  16  27  31  32  33  34  35 0
 6-311+G(2d,p)
 ****
 36  37 0
 6-311+G(2d,p)
 ****
 1  2  3  4  5  17  18  19  20  21  22  23  24  25 0
 3-21G
 ****
 26  28  29  30  38  39  40  41  42  43  44  45 0
 3-21G
 ****


