%nproc=1
%NoSave
%Mem=1900MB
#P OB98/GEN NMR

erre ene a

0 1
  C       30.558      22.386      73.899
  O       30.418      21.053      74.371
  P       30.831      19.864      73.371
  C       28.406      19.377      72.576
  O       29.703      19.850      72.229
  C       27.413      19.666      71.455
  O       27.376      21.079      71.175
  C       27.741      18.993      70.131
  O       27.311      17.643      70.093
  C       26.923      19.838      69.168
  O       25.543      19.431      69.213
  C       27.079      21.242      69.762
  N       28.852      23.024      65.311
  C       27.812      22.217      65.606
  N       27.410      21.778      66.817
  C       28.231      22.227      67.782
  C       29.353      23.024      67.626
  C       29.654      23.441      66.320
  N       30.698      24.288      66.024
  N       29.942      23.274      68.846
  C       29.187      22.649      69.723
  N       28.134      22.009      69.130
  O       30.509      18.549      74.224
  O       32.244      19.898      72.899
  H       25.147      19.857      69.997
  H       31.039      17.798      73.892
  H       27.216      21.888      64.759
  H       29.357      22.639      70.791
  H       26.157      21.829      69.691
  H       27.252      19.739      68.129
  H       28.807      19.091      69.888
  H       26.416      19.365      71.802
  H       28.074      19.883      73.487
  H       30.736      24.684      65.099
  H       31.165      24.753      66.794
  H       28.460      18.301      72.772
  P       27.975      16.703      68.973
  C       26.207      17.359      67.187
  O       27.568      17.361      67.571
  O       27.093      15.371      69.049
  O       29.427      16.436      69.184
  H       27.606      14.603      68.734
  H       26.065      18.096      66.393
  H       25.558      17.623      68.027
  H       25.931      16.372      66.805
  H       30.249      23.069      74.663
  H       29.948      22.523      73.030
  H       31.582      22.570      73.649

 3  4  5  6  7  8  9  10  11  12  22  25  29  30  31  32 0
 6-311+G(2d,p)
 ****
 33  36  37 0
 6-311+G(2d,p)
 ****
 1  2  13  14  15  16  17  18  19  20  21  23  24  26 0
 3-21G
 ****
 27  28  34  35  38  39  40  41  42  43  44  45  46  47  48 0
 3-21G
 ****


