%nproc=1
%NoSave
%Mem=1900MB
#P OB98/GEN NMR

erre ene a

0 1
  C     -325.022     152.412      93.632
  O     -326.199     153.163      93.852
  H     -324.239     153.085      93.271
  H     -325.205     151.646      92.873
  H     -324.687     151.945      94.562
  P     -327.425     152.402      94.546
  C     -328.448     150.130      93.720
  O     -328.109     151.478      93.423
  C     -329.011     149.447      92.474
  O     -328.281     149.834      91.293
  C     -328.893     147.933      92.495
  O     -329.777     147.329      93.412
  C     -329.199     147.614      91.039
  O     -330.609     147.658      90.785
  C     -328.476     148.777      90.314
  N     -327.218     148.362      89.710
  C     -327.303     147.311      88.787
  O     -328.394     146.805      88.523
  N     -326.147     146.845      88.213
  C     -325.012     147.394      88.512
  N     -323.903     146.880      87.916
  C     -324.880     148.518      89.457
  C     -326.011     148.944      90.017
  O     -328.497     153.571      94.744
  O     -327.086     151.656      95.795
  H     -330.925     148.513      91.142
  H     -328.696     154.058      93.927
  H     -323.912     148.950      89.668
  H     -326.003     149.764      90.724
  H     -329.113     149.193      89.524
  H     -328.855     146.617      90.757
  H     -327.855     147.636      92.693
  H     -330.054     149.768      92.353
  H     -324.028     146.094      87.288
  H     -329.165     150.080      94.545
  H     -322.964     147.202      88.095
  H     -327.534     149.624      94.046
  P     -329.474     145.865      93.991
  C     -328.771     143.675      92.835
  O     -329.553     144.862      92.739
  O     -330.305     145.461      95.162
  O     -327.902     145.906      94.293
  H     -327.343     146.086      93.516
  H     -328.902     143.089      91.950
  H     -329.085     143.109      93.687
  H     -327.739     143.936      92.940

 6  7  8  9  10  11  12  13  14  15  16  26  30  31  32  33  35 0
 6-311+G(2d,p)
 ****
 37  38 0
 6-311+G(2d,p)
 ****
 1  2  3  4  5  17  18  19  20  21  22  23  24  25 0
 3-21G
 ****
 27  28  29  34  36  39  40  41  42  43  44  45  46 0
 3-21G
 ****


