%nproc=1
%NoSave
%Mem=1900MB
#P OB98/GEN NMR

erre ene a

0 1
  C      -39.319      37.229      70.074
  O      -38.691      37.529      68.823
  P      -37.619      38.731      68.839
  C      -35.518      37.541      67.885
  O      -36.156      38.090      69.027
  C      -34.403      38.462      67.388
  O      -33.301      38.535      68.314
  C      -33.806      38.032      66.057
  O      -34.651      38.428      64.989
  C      -32.465      38.756      66.071
  O      -32.601      40.115      65.604
  C      -32.077      38.732      67.554
  N      -27.176      37.421      67.500
  C      -27.820      38.489      66.889
  N      -27.035      39.331      66.187
  N      -29.103      38.700      66.968
  C      -29.757      37.768      67.703
  C      -29.229      36.685      68.370
  C      -27.804      36.463      68.278
  O      -27.191      35.548      68.813
  N      -30.199      35.995      69.062
  C      -31.326      36.592      68.701
  N      -31.111      37.712      67.931
  O      -37.906      39.462      70.244
  O      -37.770      39.674      67.694
  H      -33.374      40.526      66.044
  H      -38.314      40.334      70.085
  H      -26.185      37.303      67.399
  H      -32.319      36.277      68.994
  H      -31.651      39.688      67.880
  H      -31.740      38.277      65.400
  H      -26.037      39.238      66.090
  H      -33.647      36.946      66.055
  H      -27.484      40.137      65.746
  H      -34.835      39.466      67.298
  H      -36.254      37.386      67.084
  H      -35.126      36.548      68.146
  P      -34.704      37.501      63.686
  C      -36.896      36.357      64.506
  O      -35.554      36.203      64.057
  O      -33.196      36.963      63.560
  O      -35.127      38.210      62.438
  H      -32.906      37.011      62.628
  H      -37.471      35.474      64.218
  H      -37.360      37.246      64.066
  H      -36.893      36.441      65.588
  H      -40.006      36.420      69.943
  H      -39.846      38.092      70.424
  H      -38.574      36.952      70.790

 3  4  5  6  7  8  9  10  11  12  23  26  30  31 0
 6-311+G(2d,p)
 ****
 33  35  36  37  38 0
 6-311+G(2d,p)
 ****
 1  2  13  14  15  16  17  18  19  20  21  22  24  25 0
 3-21G
 ****
 27  28  29  32  34  39  40  41  42  43  44  45  46  47  48  49 0
 3-21G
 ****


