%nproc=1
%NoSave
%Mem=1900MB
#P OB98/GEN NMR

erre ene a

0 1
  C      114.179     367.043    -433.680
  O      115.302     366.426    -433.081
  H      113.411     366.283    -433.847
  H      114.461     367.479    -434.644
  H      113.770     367.818    -433.021
  P      116.478     367.399    -432.581
  C      118.365     368.699    -433.869
  O      117.391     367.669    -433.875
  C      119.031     368.824    -435.240
  O      119.985     367.737    -435.389
  C      118.054     368.743    -436.412
  O      118.515     369.616    -437.450
  C      118.170     367.302    -436.878
  O      117.767     367.135    -438.234
  C      119.658     367.023    -436.601
  N      119.941     365.592    -436.477
  C      120.858     365.052    -437.380
  O      121.384     365.771    -438.239
  N      121.147     363.710    -437.319
  C      120.513     362.960    -436.473
  N      120.815     361.633    -436.479
  C      119.498     363.479    -435.531
  C      119.273     364.789    -435.573
  O      117.366     366.409    -431.692
  O      116.009     368.620    -431.869
  H      117.672     366.176    -438.420
  H      117.515     365.540    -432.106
  H      118.991     362.809    -434.845
  H      118.551     365.255    -434.915
  H      120.281     367.427    -437.406
  H      117.539     366.652    -436.260
  H      117.027     369.013    -436.128
  H      119.607     369.753    -435.269
  H      121.507     361.315    -437.160
  H      119.128     368.498    -433.109
  H      120.351     360.941    -435.908
  H      117.861     369.639    -433.606
  P      117.971     371.120    -437.515
  C      115.777     372.325    -438.171
  O      116.574     371.153    -438.296
  O      118.967     372.147    -437.948
  O      117.517     371.395    -435.992
  H      117.792     372.304    -435.761
  H      114.879     372.208    -438.741
  H      116.324     373.169    -438.536
  H      115.528     372.479    -437.142

 6  7  8  9  10  11  12  13  14  15  16  26  30  31  32  33  35 0
 6-311+G(2d,p)
 ****
 37  38 0
 6-311+G(2d,p)
 ****
 1  2  3  4  5  17  18  19  20  21  22  23  24  25 0
 3-21G
 ****
 27  28  29  34  36  39  40  41  42  43  44  45  46 0
 3-21G
 ****


