%nproc=1
%NoSave
%Mem=1900MB
#P OB98/GEN NMR

erre ene a

0 1
  C      -67.774     123.621     -18.823
  O      -67.917     124.075     -17.481
  P      -68.808     125.384     -17.232
  C      -70.961     123.950     -16.798
  O      -70.072     124.954     -16.345
  C      -71.904     123.497     -15.668
  O      -71.304     122.358     -14.999
  C      -72.148     124.527     -14.570
  O      -73.326     124.158     -13.849
  C      -70.935     124.332     -13.688
  O      -71.134     124.884     -12.389
  C      -70.730     122.801     -13.741
  N      -69.312     122.390     -13.658
  C      -68.933     121.521     -12.637
  O      -69.708     121.071     -11.795
  N      -67.604     121.201     -12.581
  C      -66.641     121.621     -13.449
  O      -65.451     121.375     -13.301
  C      -67.117     122.420     -14.585
  C      -68.404     122.772     -14.632
  O      -69.426     125.696     -18.673
  O      -68.038     126.539     -16.688
  H      -70.277     124.794     -11.912
  H      -68.977     126.463     -19.073
  H      -67.303     120.626     -11.807
  H      -66.393     122.717     -15.334
  H      -68.768     123.380     -15.456
  H      -71.261     122.302     -12.921
  H      -70.073     124.840     -14.128
  H      -72.236     125.558     -14.924
  H      -72.852     123.162     -16.102
  H      -70.396     123.099     -17.184
  H      -71.556     124.336     -17.633
  P      -74.725     124.779     -14.325
  C      -75.501     123.710     -16.530
  O      -75.490     123.613     -15.118
  O      -74.655     126.096     -15.022
  O      -75.559     124.873     -12.958
  H      -76.297     125.500     -13.066
  H      -75.553     122.703     -16.952
  H      -74.602     124.207     -16.906
  H      -76.384     124.272     -16.844
  H      -67.159     122.746     -18.840
  H      -67.318     124.389     -19.413
  H      -68.738     123.387     -19.225

 3  4  5  6  7  8  9  10  11  12  13  23  28  29  30  31  32 0
 6-311+G(2d,p)
 ****
 33  34 0
 6-311+G(2d,p)
 ****
 1  2  14  15  16  17  18  19  20  21  22  24  25  26  27 0
 3-21G
 ****
 35  36  37  38  39  40  41  42  43  44  45 0
 3-21G
 ****


