%nproc=1
%NoSave
%Mem=1900MB
#P OB98/GEN NMR

erre ene a

0 1
  C       24.661      24.559      23.068
  O       23.848      24.272      24.210
  P       24.617      23.781      25.536
  C       22.503      22.388      26.142
  O       23.501      23.299      26.585
  C       21.288      22.429      27.067
  O       20.709      23.746      27.104
  C       20.151      21.509      26.645
  O       20.392      20.164      27.030
  C       18.989      22.095      27.436
  O       19.008      21.588      28.782
  C       19.304      23.599      27.423
  N       14.700      25.308      26.168
  C       15.103      24.574      27.266
  N       14.147      24.276      28.173
  N       16.330      24.169      27.459
  C       17.186      24.566      26.486
  C       16.908      25.293      25.352
  C       15.539      25.707      25.134
  O       15.123      26.330      24.164
  N       18.037      25.509      24.605
  C       19.002      24.939      25.299
  N       18.533      24.339      26.444
  O       25.149      25.152      26.169
  O       25.724      22.817      25.273
  H       18.983      20.613      28.721
  H       25.947      24.984      26.705
  H       13.741      25.586      26.066
  H       20.049      24.934      25.023
  H       19.144      24.058      28.405
  H       18.015      21.833      27.012
  H       13.199      24.616      28.124
  H       19.951      21.599      25.571
  H       14.432      23.768      29.003
  H       21.622      22.167      28.081
  H       22.908      21.375      26.122
  H       22.223      22.641      25.115
  P       20.059      19.023      25.952
  C       18.070      18.059      27.311
  O       19.362      17.842      26.780
  O       21.502      18.439      25.584
  O       19.324      19.506      24.747
  H       21.502      18.089      24.672
  H       17.424      18.564      26.589
  H       18.143      18.661      28.221
  H       17.626      17.092      27.563
  H       24.038      24.873      22.257
  H       25.200      23.679      22.784
  H       25.353      25.339      23.310

 3  4  5  6  7  8  9  10  11  12  23  26  30  31  33  0
 6-311+G(2d,p)
 ****
 35  36  37  38 0
 6-311+G(2d,p)
 ****
 1  2  13  14  15  16  17  18  19  20  21  22  24  25  27  28  29 0
 3-21G
 ****
 32  34  39  40  41  42  43  44  45  46  47  48  49 0
 3-21G
 ****


