%nproc=1
%NoSave
%Mem=1900MB
#P OB98/GEN NMR

erre ene a

0 1
  C     -499.472    -192.750     118.345
  O     -498.437    -193.264     119.154
  H     -499.694    -191.733     118.677
  H     -500.376    -193.352     118.448
  H     -499.158    -192.718     117.299
  P     -498.035    -194.814     119.014
  C     -499.781    -195.510     120.762
  O     -499.373    -195.628     119.403
  C     -501.012    -196.370     121.053
  O     -500.696    -197.767     120.820
  C     -501.529    -196.248     122.492
  O     -502.948    -196.077     122.474
  C     -501.160    -197.584     123.120
  O     -501.996    -197.897     124.231
  C     -501.269    -198.516     121.905
  N     -500.584    -199.787     122.107
  C     -501.384    -200.930     122.146
  O     -502.610    -200.831     122.053
  N     -500.791    -202.156     122.328
  C     -499.507    -202.225     122.511
  N     -498.982    -203.466     122.694
  C     -498.630    -201.040     122.519
  C     -499.224    -199.864     122.305
  O     -496.816    -195.214     119.775
  O     -497.913    -195.058     117.435
  H     -501.799    -198.819     124.520
  H     -497.370    -195.869     117.270
  H     -497.566    -201.152     122.681
  H     -498.653    -198.945     122.289
  H     -502.319    -198.724     121.664
  H     -500.123    -197.548     123.473
  H     -501.084    -195.417     123.040
  H     -501.791    -196.107     120.327
  H     -499.621    -204.254     122.677
  H     -499.991    -194.456     120.977
  H     -498.001    -203.644     122.850
  H     -498.954    -195.845     121.400
  P     -503.483    -194.588     122.763
  C     -503.540    -194.986     125.321
  O     -503.057    -194.184     124.257
  O     -505.069    -194.779     122.851
  O     -503.103    -193.605     121.705
  H     -505.488    -194.511     122.017
  H     -503.178    -194.600     126.251
  H     -503.197    -195.991     125.194
  H     -504.610    -194.972     125.321

 6  7  8  9  10  11  12  13  14  15  16  26  30  31  32  33  35 0
 6-311+G(2d,p)
 ****
 37  38 0
 6-311+G(2d,p)
 ****
 1  2  3  4  5  17  18  19  20  21  22  23  24  25 0
 3-21G
 ****
 27  28  29  34  36  39  40  41  42  43  44  45  46 0
 3-21G
 ****


