%nproc=1
%NoSave
%Mem=1900MB
#P OB98/GEN NMR

erre ene a

0 1
  C     -221.346     -28.256    -262.353
  O     -221.981     -29.157    -263.239
  H     -221.762     -27.256    -262.512
  H     -220.270     -28.221    -262.536
  H     -221.537     -28.551    -261.318
  P     -221.368     -30.634    -263.381
  C     -220.737     -30.029    -265.811
  O     -220.280     -30.537    -264.559
  C     -219.634     -30.109    -266.870
  O     -218.610     -29.130    -266.594
  C     -218.912     -31.447    -266.903
  O     -219.697     -32.517    -267.380
  C     -217.609     -31.097    -267.608
  O     -217.704     -31.145    -269.030
  C     -217.379     -29.635    -267.151
  N     -216.272     -29.526    -266.208
  C     -215.103     -30.189    -266.567
  O     -214.988     -30.855    -267.596
  N     -214.069     -30.102    -265.674
  C     -214.110     -29.474    -264.464
  O     -213.163     -29.468    -263.689
  C     -215.381     -28.812    -264.128
  C     -216.389     -28.866    -265.002
  O     -222.367     -31.737    -263.568
  O     -220.468     -30.799    -262.068
  H     -218.171     -31.972    -269.259
  H     -220.252     -31.749    -261.901
  H     -213.211     -30.568    -265.922
  H     -215.451     -28.305    -263.173
  H     -217.339     -28.387    -264.775
  H     -217.146     -29.000    -268.014
  H     -216.802     -31.774    -267.320
  H     -218.639     -31.708    -265.872
  H     -220.074     -29.874    -267.846
  H     -221.019     -28.982    -265.660
  H     -221.621     -30.591    -266.136
  P     -219.315     -34.052    -267.161
  C     -219.164     -34.708    -269.671
  O     -218.472     -34.548    -268.437
  O     -220.384     -34.944    -266.619
  O     -218.168     -33.935    -266.027
  H     -218.245     -34.720    -265.449
  H     -218.479     -35.040    -270.423
  H     -219.590     -33.772    -269.965
  H     -219.942     -35.432    -269.552

 6  7  8  9  10  11  12  13  14  15  16  26  31  32  33  34  35 0
 6-311+G(2d,p)
 ****
 36  37 0
 6-311+G(2d,p)
 ****
 1  2  3  4  5  17  18  19  20  21  22  23  24  25 0
 3-21G
 ****
 27  28  29  30  38  39  40  41  42  43  44  45 0
 3-21G
 ****


