%nproc=1
%NoSave
%Mem=1900MB
#P OB98/GEN NMR

erre ene a

0 1
  C      100.608     411.338      48.176
  O      100.637     409.970      48.530
  H      101.064     411.457      47.188
  H      101.177     411.931      48.899
  H       99.577     411.698      48.134
  P      100.103     409.604      50.002
  C      102.346     410.622      50.865
  O      101.447     409.522      50.877
  C      103.256     410.560      52.085
  O      104.198     411.653      52.075
  C      102.521     410.668      53.421
  O      101.902     409.453      53.808
  C      103.673     411.037      54.334
  O      104.467     409.867      54.606
  C      104.447     412.040      53.453
  N      104.045     413.432      53.676
  C      104.960     414.250      54.350
  O      106.038     413.801      54.733
  N      104.619     415.558      54.601
  C      103.467     416.014      54.206
  N      103.175     417.312      54.497
  C      102.484     415.191      53.480
  C      102.831     413.929      53.254
  O       99.676     408.066      49.876
  O       99.043     410.496      50.556
  H      104.681     409.463      53.745
  H       99.447     407.708      50.768
  H      101.533     415.613      53.181
  H      102.154     413.263      52.726
  H      105.531     411.960      53.624
  H      103.344     411.432      55.296
  H      101.800     411.494      53.414
  H      103.837     409.626      52.026
  H      103.844     417.834      55.048
  H      101.759     411.549      50.877
  H      102.246     417.696      54.390
  H      102.955     410.599      49.956
  P      100.314     409.477      54.061
  C      100.663     410.815      56.261
  O      100.092     409.672      55.639
  O       99.889     407.956      53.816
  O       99.546     410.422      53.187
  H       99.031     407.895      53.356
  H      100.431     410.806      57.305
  H      100.263     411.701      55.814
  H      101.725     410.798      56.132

 6  7  8  9  10  11  12  13  14  15  16  26  30  31  32  33  35 0
 6-311+G(2d,p)
 ****
 37  38 0
 6-311+G(2d,p)
 ****
 1  2  3  4  5  17  18  19  20  21  22  23  24  25 0
 3-21G
 ****
 27  28  29  34  36  39  40  41  42  43  44  45  46 0
 3-21G
 ****


