%nproc=1
%NoSave
%Mem=1900MB
#P OB98/GEN NMR

erre ene a

0 1
  C      193.465     432.636    -299.447
  O      193.018     433.207    -300.679
  P      191.450     433.276    -301.032
  C      189.639     431.757    -302.016
  O      191.038     431.958    -301.861
  C      189.256     430.281    -302.208
  O      189.442     429.867    -303.583
  C      190.026     429.294    -301.330
  O      189.110     428.235    -301.029
  C      191.121     428.812    -302.271
  O      191.716     427.594    -301.844
  C      190.359     428.755    -303.598
  N      191.244     428.797    -304.756
  C      191.133     427.753    -305.676
  O      190.348     426.827    -305.480
  N      191.944     427.763    -306.792
  C      192.862     428.673    -306.913
  N      193.649     428.618    -308.019
  C      193.073     429.745    -305.915
  C      192.234     429.747    -304.885
  O      191.002     434.567    -301.650
  O      190.729     433.057    -299.610
  H      192.526     427.444    -302.368
  H      189.875     433.531    -299.609
  H      193.867     430.473    -306.052
  H      192.306     430.499    -304.097
  H      189.759     427.833    -303.663
  H      191.915     429.569    -302.324
  H      190.422     429.742    -300.413
  H      188.171     430.198    -301.999
  H      193.484     427.849    -308.666
  H      189.303     432.332    -302.890
  H      194.462     429.206    -308.156
  H      189.124     432.168    -301.141
  P      188.851     427.737    -299.529
  C      190.077     426.287    -297.807
  O      190.140     426.886    -299.095
  O      187.541     427.036    -299.321
  O      188.960     429.056    -298.629
  H      188.541     428.892    -297.762
  H      190.900     425.572    -297.705
  H      189.130     425.754    -297.669
  H      190.184     427.058    -297.038
  H      194.533     432.683    -299.399
  H      193.150     431.615    -299.392
  H      193.047     433.183    -298.628

 3  4  5  6  7  8  9  10  11  12  13  23  27  28  29  30  32 0
 6-311+G(2d,p)
 ****
 34  35 0
 6-311+G(2d,p)
 ****
 1  2  14  15  16  17  18  19  20  21  22  24  25  26 0
 3-21G
 ****
 31  33  36  37  38  39  40  41  42  43  44  45  46 0
 3-21G
 ****


