%nproc=1
%NoSave
%Mem=1900MB
#P OB98/GEN NMR

erre ene a

0 1
  C     -273.053     654.386     453.619
  O     -274.120     655.306     453.873
  P     -274.225     656.562     452.880
  C     -275.985     658.395     452.332
  O     -275.648     657.273     453.130
  C     -277.289     659.042     452.811
  O     -278.463     658.317     452.347
  C     -277.412     659.097     454.330
  O     -276.658     660.193     454.828
  C     -278.920     659.271     454.522
  O     -279.306     660.652     454.393
  C     -279.493     658.437     453.361
  N     -282.891     655.828     456.085
  C     -282.616     657.190     456.073
  N     -283.372     657.962     456.883
  N     -281.690     657.729     455.330
  C     -281.011     656.833     454.567
  C     -281.219     655.480     454.470
  C     -282.242     654.877     455.299
  O     -282.539     653.692     455.329
  N     -280.366     654.912     453.538
  C     -279.582     655.912     453.173
  N     -279.979     657.113     453.720
  O     -274.375     655.895     451.436
  O     -273.041     657.469     452.947
  H     -278.594     661.212     454.747
  H     -273.558     656.040     450.919
  H     -283.607     655.462     456.682
  H     -278.753     655.823     452.504
  H     -280.336     658.951     452.879
  H     -279.234     658.945     455.513
  H     -284.117     657.601     457.487
  H     -277.075     658.147     454.766
  H     -283.196     658.959     456.891
  H     -277.335     660.055     452.391
  H     -276.082     658.093     451.283
  H     -275.158     659.123     452.370
  P     -275.535     659.877     455.933
  C     -273.453     661.264     456.653
  O     -274.816     661.267     456.294
  O     -274.421     659.076     455.097
  O     -276.009     659.078     457.105
  H     -274.110     658.310     455.619
  H     -272.999     662.215     456.359
  H     -272.905     660.441     456.162
  H     -273.363     661.153     457.743
  H     -273.084     653.596     454.340
  H     -272.116     654.898     453.691
  H     -273.161     653.977     452.636

 3  4  5  6  7  8  9  10  11  12  23  26  30  31 0
 6-311+G(2d,p)
 ****
 33  35  36  37  38 0
 6-311+G(2d,p)
 ****
 1  2  13  14  15  16  17  18  19  20  21  22  24  25 0
 3-21G
 ****
 27  28  29  32  34  39  40  41  42  43  44  45  46  47  48  49 0
 3-21G
 ****


