%nproc=1
%NoSave
%Mem=1900MB
#P OB98/GEN NMR

erre ene a

0 1
  C       88.766    -544.510    -384.151
  O       89.597    -545.417    -383.413
  P       89.103    -546.092    -382.039
  C       91.074    -545.872    -380.409
  O       90.344    -546.753    -381.256
  C       92.504    -546.363    -380.115
  O       92.492    -547.739    -379.621
  C       93.464    -546.348    -381.320
  O       94.763    -546.105    -380.775
  C       93.358    -547.777    -381.830
  O       94.438    -548.154    -382.667
  C       93.279    -548.544    -380.514
  N       94.296    -553.518    -381.217
  C       95.095    -552.468    -380.902
  N       94.750    -551.188    -380.694
  C       93.414    -551.027    -380.796
  C       92.471    -551.997    -381.094
  C       92.959    -553.297    -381.320
  N       92.158    -554.359    -381.690
  N       91.201    -551.454    -381.143
  C       91.373    -550.172    -380.886
  N       92.697    -549.861    -380.666
  O       87.925    -547.006    -382.199
  O       88.698    -544.852    -381.109
  H       94.341    -549.098    -382.904
  H       87.844    -545.034    -380.681
  H       96.155    -552.698    -380.822
  H       90.601    -549.423    -380.861
  H       94.272    -548.664    -380.066
  H       92.429    -547.882    -382.422
  H       93.204    -545.599    -382.062
  H       92.901    -545.746    -379.301
  H       90.528    -545.759    -379.467
  H       92.613    -555.230    -381.922
  H       91.188    -554.186    -381.897
  H       91.127    -544.885    -380.889
  P       95.404    -544.627    -380.755
  C       97.077    -545.457    -382.519
  O       96.921    -544.791    -381.277
  O       95.255    -543.892    -379.466
  O       94.678    -543.862    -381.959
  H       94.777    -542.902    -381.839
  H       96.964    -546.534    -382.371
  H       98.083    -545.257    -382.898
  H       96.339    -545.111    -383.252
  H       89.286    -544.182    -385.027
  H       88.529    -543.665    -383.539
  H       87.863    -545.007    -384.438

 3  4  5  6  7  8  9  10  11  12  22  25  29  30  31  32 0
 6-311+G(2d,p)
 ****
 33  36  37 0
 6-311+G(2d,p)
 ****
 1  2  13  14  15  16  17  18  19  20  21  23  24  26 0
 3-21G
 ****
 27  28  34  35  38  39  40  41  42  43  44  45  46  47  48 0
 3-21G
 ****


