%nproc=1
%NoSave
%Mem=1900MB
#P OB98/GEN NMR

erre ene a

0 1
  C       -2.377     -39.977     -69.452
  O       -3.439     -40.773     -68.974
  H       -2.789     -39.169     -70.062
  H       -1.710     -40.578     -70.075
  H       -1.817     -39.540     -68.621
  P       -3.080     -41.931     -67.924
  C       -3.658     -40.616     -65.761
  O       -2.641     -41.197     -66.563
  C       -3.419     -40.937     -64.285
  O       -2.035     -40.644     -63.961
  C       -4.306     -40.134     -63.330
  O       -4.693     -40.981     -62.245
  C       -3.385     -39.043     -62.816
  O       -3.785     -38.540     -61.542
  C       -2.025     -39.752     -62.830
  N       -0.924     -38.797     -62.902
  C       -0.507     -38.226     -61.697
  O       -1.069     -38.528     -60.642
  N        0.491     -37.288     -61.717
  C        0.974     -36.888     -62.852
  N        1.941     -35.932     -62.809
  C        0.517     -37.412     -64.154
  C       -0.418     -38.360     -64.105
  O       -1.702     -42.522     -68.480
  O       -4.123     -42.983     -67.750
  H       -4.726     -38.268     -61.600
  H       -1.620     -43.474     -68.282
  H        0.931     -37.029     -65.075
  H       -0.820     -38.799     -65.009
  H       -1.901     -40.365     -61.927
  H       -3.382     -38.203     -63.522
  H       -5.199     -39.727     -63.811
  H       -3.560     -42.014     -64.137
  H        2.214     -35.585     -61.898
  H       -4.627     -41.027     -66.061
  H        2.354     -35.516     -63.630
  H       -3.670     -39.532     -65.918
  P       -6.220     -40.887     -61.766
  C       -7.356     -42.370     -63.570
  O       -7.159     -41.061     -63.054
  O       -6.391     -39.345     -61.376
  O       -6.544     -41.786     -60.619
  H       -6.456     -39.252     -60.408
  H       -8.001     -42.324     -64.423
  H       -7.803     -42.986     -62.818
  H       -6.413     -42.785     -63.858

 6  7  8  9  10  11  12  13  14  15  16  26  30  31  32  33  35 0
 6-311+G(2d,p)
 ****
 37  38 0
 6-311+G(2d,p)
 ****
 1  2  3  4  5  17  18  19  20  21  22  23  24  25 0
 3-21G
 ****
 27  28  29  34  36  39  40  41  42  43  44  45  46 0
 3-21G
 ****


