%nproc=1
%NoSave
%Mem=1900MB
#P OB98/GEN NMR

erre ene a

0 1
  C       50.917      75.415      18.156
  O       52.126      74.763      17.756
  P       53.203      75.639      16.949
  C       55.024      75.295      18.801
  O       54.637      75.121      17.446
  C       55.914      74.136      19.244
  O       55.131      72.929      19.417
  C       57.004      73.772      18.248
  O       58.057      74.722      18.263
  C       57.387      72.381      18.735
  O       58.275      72.472      19.860
  C       56.024      71.813      19.184
  N       55.457      70.866      18.233
  C       55.019      69.659      18.769
  O       55.117      69.378      19.962
  N       54.480      68.772      17.878
  C       54.367      68.958      16.532
  O       53.864      68.129      15.783
  C       54.893      70.231      16.017
  C       55.407      71.114      16.877
  O       53.029      77.064      17.649
  O       52.979      75.623      15.474
  H       52.829      76.999      18.598
  H       59.152      72.715      19.501
  H       54.144      67.896      18.249
  H       54.843      70.401      14.949
  H       55.803      72.058      16.516
  H       56.128      71.302      20.150
  H       57.895      71.793      17.964
  H       56.579      73.708      17.238
  H       56.359      74.399      20.212
  H       54.137      75.333      19.440
  H       55.544      76.253      18.900
  P       59.218      74.536      17.166
  C       58.782      76.727      15.808
  O       59.623      76.008      16.682
  O       58.387      73.937      15.935
  O       60.346      73.674      17.627
  H       57.546      74.399      15.783
  H       59.033      77.789      15.875
  H       57.729      76.599      16.070
  H       58.947      76.391      14.781
  H       50.294      74.721      18.681
  H       50.401      75.773      17.289
  H       51.151      76.239      18.797

 3  4  5  6  7  8  9  10  11  12  13  24  28  29  30  31  32 0
 6-311+G(2d,p)
 ****
 33  34 0
 6-311+G(2d,p)
 ****
 1  2  14  15  16  17  18  19  20  21  22  23  25  26  27 0
 3-21G
 ****
 35  36  37  38  39  40  41  42  43  44  45 0
 3-21G
 ****


