%nproc=1
%NoSave
%Mem=1900MB
#P OB98/GEN NMR

erre ene a

0 1
  C      -71.767      -9.601     -30.043
  O      -71.564      -8.257     -30.447
  P      -72.470      -7.688     -31.646
  C      -72.276      -7.658     -34.244
  O      -71.751      -8.124     -33.012
  C      -72.098      -8.714     -35.338
  O      -72.941      -9.852     -35.022
  C      -72.476      -8.248     -36.748
  O      -71.615      -8.940     -37.661
  C      -73.898      -8.754     -36.906
  O      -74.291      -8.871     -38.270
  C      -73.813     -10.076     -36.151
  N      -78.034     -12.552     -37.425
  C      -76.945     -12.201     -38.202
  N      -76.963     -12.625     -39.484
  N      -75.932     -11.502     -37.762
  C      -76.048     -11.164     -36.456
  C      -77.090     -11.417     -35.596
  C      -78.186     -12.223     -36.084
  O      -79.128     -12.630     -35.409
  N      -76.886     -10.836     -34.373
  C      -75.685     -10.302     -34.469
  N      -75.118     -10.514     -35.696
  O      -72.215      -6.113     -31.569
  O      -73.923      -8.039     -31.583
  H      -73.524      -9.209     -38.775
  H      -72.902      -5.671     -31.033
  H      -78.776     -13.108     -37.815
  H      -75.177      -9.759     -33.688
  H      -73.385     -10.882     -36.760
  H      -74.593      -8.062     -36.414
  H      -77.695     -13.192     -39.880
  H      -72.393      -7.167     -36.890
  H      -76.162     -12.410     -40.066
  H      -71.058      -9.061     -35.315
  H      -71.734      -6.755     -34.541
  H      -73.333      -7.401     -34.120
  P      -71.150      -8.166     -38.985
  C      -72.316      -7.066     -41.019
  O      -72.467      -7.749     -39.791
  O      -70.526      -9.339     -39.882
  O      -70.147      -7.082     -38.758
  H      -69.800      -8.984     -40.427
  H      -73.221      -7.209     -41.615
  H      -71.459      -7.439     -41.585
  H      -72.186      -5.998     -40.826
  H      -71.098      -9.837     -29.242
  H      -71.579     -10.254     -30.869
  H      -72.777      -9.726     -29.713

 3  4  5  6  7  8  9  10  11  12  23  26  30  31 0
 6-311+G(2d,p)
 ****
 33  35  36  37  38 0
 6-311+G(2d,p)
 ****
 1  2  13  14  15  16  17  18  19  20  21  22  24  25 0
 3-21G
 ****
 27  28  29  32  34  39  40  41  42  43  44  45  46  47  48  49 0
 3-21G
 ****


