%nproc=1
%NoSave
%Mem=1900MB
#P OB98/GEN NMR

erre ene a

0 1
  C     -226.446     621.571      21.224
  O     -226.566     620.166      21.114
  H     -225.495     621.876      20.779
  H     -226.458     621.884      22.273
  H     -227.258     622.061      20.683
  P     -227.738     619.441      21.939
  C     -229.084     619.497      19.738
  O     -229.093     619.773      21.136
  C     -230.391     618.836      19.297
  O     -231.532     619.576      19.785
  C     -230.582     618.783      17.784
  O     -229.677     617.943      17.108
  C     -232.075     618.516      17.674
  O     -232.396     617.133      17.816
  C     -232.628     619.324      18.877
  N     -233.283     620.559      18.463
  C     -234.529     620.414      17.865
  O     -235.070     619.323      17.664
  N     -235.138     621.576      17.475
  C     -234.614     622.825      17.574
  O     -235.201     623.831      17.185
  C     -233.272     622.910      18.180
  C     -232.675     621.792      18.596
  O     -227.803     619.768      23.404
  O     -227.515     617.887      21.640
  H     -233.364     617.058      17.752
  H     -228.017     617.322      22.280
  H     -236.051     621.492      17.053
  H     -232.820     623.892      18.265
  H     -231.688     621.828      19.041
  H     -233.356     618.719      19.432
  H     -232.474     618.840      16.704
  H     -230.415     619.788      17.385
  H     -230.429     617.834      19.737
  H     -228.247     618.815      19.536
  H     -228.930     620.431      19.184
  P     -229.116     618.245      15.653
  C     -227.038     619.467      16.677
  O     -228.107     619.490      15.735
  O     -230.106     618.219      14.524
  O     -228.099     617.007      15.435
  H     -228.121     616.777      14.483
  H     -226.470     620.370      16.594
  H     -226.405     618.628      16.477
  H     -227.436     619.386      17.667

 6  7  8  9  10  11  12  13  14  15  16  26  31  32  33  34  35 0
 6-311+G(2d,p)
 ****
 36  37 0
 6-311+G(2d,p)
 ****
 1  2  3  4  5  17  18  19  20  21  22  23  24  25 0
 3-21G
 ****
 27  28  29  30  38  39  40  41  42  43  44  45 0
 3-21G
 ****


