%nproc=1
%NoSave
%Mem=1900MB
#P OB98/GEN NMR

erre ene a

0 1
  C      573.714     409.739    -114.751
  O      574.125     409.790    -116.098
  H      573.822     410.731    -114.304
  H      574.335     409.031    -114.191
  H      572.656     409.444    -114.679
  P      573.901     408.508    -117.028
  C      574.283     405.984    -116.620
  O      574.754     407.303    -116.377
  C      574.769     405.054    -115.514
  O      574.358     405.555    -114.214
  C      574.209     403.636    -115.605
  O      574.833     402.890    -116.634
  C      574.456     403.138    -114.192
  O      575.806     402.682    -114.044
  C      574.218     404.406    -113.344
  N      572.893     404.387    -112.705
  C      572.829     403.808    -111.449
  O      573.802     403.326    -110.874
  N      571.587     403.734    -110.890
  C      570.407     404.048    -111.515
  O      569.306     403.742    -111.072
  C      570.542     404.723    -112.810
  C      571.758     404.857    -113.352
  O      574.116     408.718    -118.489
  O      572.388     408.079    -116.715
  H      571.812     408.383    -117.446
  H      575.997     402.138    -114.840
  H      571.521     403.266    -109.990
  H      569.641     405.067    -113.314
  H      571.880     405.318    -114.326
  H      574.980     404.506    -112.567
  H      573.790     402.308    -113.936
  H      573.120     403.687    -115.774
  H      575.868     405.034    -115.535
  H      574.669     405.647    -117.583
  H      573.186     405.997    -116.657
  P      574.150     401.540    -117.172
  C      573.759     399.157    -116.297
  O      574.519     400.353    -116.157
  O      574.411     401.230    -118.611
  O      572.591     401.758    -116.915
  H      572.096     401.548    -117.745
  H      574.088     398.439    -115.575
  H      573.896     398.761    -117.282
  H      572.723     399.372    -116.140

 6  7  8  9  10  11  12  13  14  15  16  27  31  32  33  34  35 0
 6-311+G(2d,p)
 ****
 36  37 0
 6-311+G(2d,p)
 ****
 1  2  3  4  5  17  18  19  20  21  22  23  24  25 0
 3-21G
 ****
 26  28  29  30  38  39  40  41  42  43  44  45 0
 3-21G
 ****


