%nproc=1
%NoSave
%Mem=1900MB
#P OB98/GEN NMR

erre ene a

0 1
  C      -75.755     672.094     313.601
  O      -74.551     672.705     313.177
  H      -75.547     671.482     314.480
  H      -76.151     671.450     312.807
  H      -76.491     672.859     313.858
  P      -74.624     673.608     311.856
  C      -74.658     671.680     310.137
  O      -75.416     672.695     310.797
  C      -75.583     670.750     309.345
  O      -76.280     671.541     308.343
  C      -74.841     669.627     308.615
  O      -75.649     668.448     308.616
  C      -74.742     670.149     307.192
  O      -74.571     669.098     306.237
  C      -76.052     670.921     307.058
  N      -78.225     672.464     302.722
  C      -78.602     671.553     303.651
  N      -77.968     671.221     304.796
  C      -76.866     671.979     304.970
  C      -76.365     672.946     304.118
  C      -77.096     673.177     302.940
  N      -76.711     674.077     301.973
  N      -75.194     673.474     304.627
  C      -74.997     672.844     305.772
  N      -75.982     671.922     306.012
  O      -73.325     674.161     311.372
  O      -75.726     674.698     312.259
  H      -75.367     668.524     306.256
  H      -76.501     674.283     312.675
  H      -79.524     671.020     303.445
  H      -74.170     673.007     306.457
  H      -76.905     670.271     306.830
  H      -73.881     670.822     307.100
  H      -73.862     669.403     309.041
  H      -76.346     670.352     310.023
  H      -74.090     671.099     310.871
  H      -77.286     674.179     301.154
  H      -75.872     674.626     302.110
  H      -73.946     672.178     309.458
  P      -75.060     667.108     309.278
  C      -73.531     665.932     307.563
  O      -73.604     666.831     308.665
  O      -75.973     665.927     309.275
  O      -74.720     667.566     310.776
  H      -74.992     666.852     311.397
  H      -72.513     665.834     307.250
  H      -74.118     666.312     306.753
  H      -73.907     664.975     307.858

 6  7  8  9  10  11  12  13  14  15  25  28  32  33  34  35 0
 6-311+G(2d,p)
 ****
 36  39  40 0
 6-311+G(2d,p)
 ****
 1  2  3  4  5  16  17  18  19  20  21  22  23  24 0
 3-21G
 ****
 26  27  29  30  31  37  38  41  42  43  44  45  46  47 0
 3-21G
 ****
 48 0
 3-21G
 ****


