%nproc=1
%NoSave
%Mem=1900MB
#P OB98/GEN NMR

erre ene a

0 1
  C     -896.650    -910.030    -891.057
  O     -897.520    -910.838    -891.827
  H     -895.890    -910.691    -890.627
  H     -897.220    -909.545    -890.247
  H     -896.150    -909.284    -891.657
  P     -898.540    -910.103    -892.857
  C     -898.600    -911.623    -894.927
  O     -898.070    -910.465    -894.327
  C     -897.500    -912.638    -895.307
  O     -896.800    -913.072    -894.047
  C     -898.080    -913.928    -895.967
  O     -897.150    -914.551    -896.857
  C     -898.340    -914.850    -894.757
  O     -898.370    -916.240    -895.097
  C     -897.140    -914.450    -893.827
  N     -895.890    -917.078    -889.637
  C     -895.500    -917.318    -890.977
  N     -894.710    -918.363    -891.217
  N     -895.940    -916.593    -892.017
  C     -896.790    -915.599    -891.577
  C     -897.250    -915.287    -890.327
  C     -896.770    -916.093    -889.227
  O     -897.090    -915.956    -888.067
  N     -898.120    -914.224    -890.337
  C     -898.230    -913.915    -891.637
  N     -897.390    -914.676    -892.427
  O     -898.140    -908.557    -892.737
  O     -900.000    -910.311    -892.577
  H     -898.750    -916.686    -894.317
  H     -898.890    -907.995    -893.007
  H     -895.520    -917.664    -888.927
  H     -898.840    -913.084    -892.007
  H     -896.290    -915.063    -894.117
  H     -899.310    -914.584    -894.277
  H     -894.520    -919.059    -890.477
  H     -899.040    -913.731    -896.487
  H     -894.670    -918.726    -892.167
  H     -896.760    -912.140    -895.957
  H     -899.140    -911.324    -895.857
  H     -899.350    -912.106    -894.267
  P     -897.480    -914.554    -898.427
  C     -895.030    -914.605    -899.437
  O     -896.240    -913.909    -899.217
  O     -898.650    -913.454    -898.587
  O     -897.920    -915.870    -898.957
  H     -899.470    -913.871    -898.887
  H     -894.353    -913.980    -899.982
  H     -895.227    -915.493    -900.000
  H     -894.594    -914.868    -898.496

 6  7  8  9  10  11  12  13  14  15  26  29  33  34 0
 6-311+G(2d,p)
 ****
 36  38  39  40  41 0
 6-311+G(2d,p)
 ****
 1  2  3  4  5  16  17  18  19  20  21  22  23  24  25 0
 3-21G
 ****
 27  28  30  31  32  35  37  42  43  44  45  46  47 0
 3-21G
 ****
 48  49 0
 3-21G
 ****


