%nproc=1
%NoSave
%Mem=1900MB
#P OB98/GEN NMR

erre ene a

0 1
  C     -198.617     496.818    -271.506
  O     -198.836     496.854    -272.917
  P     -199.748     498.051    -273.477
  C     -201.127     496.936    -275.378
  O     -200.029     497.771    -275.034
  C     -201.168     496.733    -276.895
  O     -201.365     497.980    -277.601
  C     -199.881     496.148    -277.464
  O     -199.781     494.764    -277.176
  C     -200.049     496.474    -278.943
  O     -200.929     495.527    -279.573
  C     -200.726     497.853    -278.894
  N     -197.949     500.455    -282.317
  C     -198.780     499.402    -282.443
  N     -199.483     498.762    -281.479
  C     -199.269     499.332    -280.281
  C     -198.450     500.413    -279.995
  C     -197.767     500.986    -281.083
  N     -196.909     502.054    -280.947
  N     -198.486     500.711    -278.648
  C     -199.290     499.803    -278.124
  N     -199.797     498.958    -279.075
  O     -198.753     499.301    -273.481
  O     -200.963     498.310    -272.647
  H     -201.139     495.880    -280.462
  H     -198.998     499.926    -272.777
  H     -198.898     499.013    -283.449
  H     -199.535     499.726    -277.072
  H     -201.505     497.962    -279.655
  H     -199.104     496.460    -279.497
  H     -199.011     496.676    -277.057
  H     -202.013     496.068    -277.125
  H     -202.064     497.382    -275.043
  H     -196.394     502.359    -281.763
  H     -196.693     502.400    -280.023
  H     -201.020     495.980    -274.857
  P     -198.373     494.217    -276.632
  C     -198.750     491.959    -277.811
  O     -198.584     492.620    -276.572
  O     -198.425     494.640    -275.099
  O     -197.180     494.675    -277.402
  H     -199.292     494.431    -274.693
  H     -198.852     490.888    -277.623
  H     -197.876     492.134    -278.450
  H     -199.654     492.318    -278.306
  H     -197.999     495.980    -271.262
  H     -199.556     496.727    -271.001
  H     -198.132     497.720    -271.197

 3  4  5  6  7  8  9  10  11  12  22  25  29  30  31  32 0
 6-311+G(2d,p)
 ****
 33  36  37 0
 6-311+G(2d,p)
 ****
 1  2  13  14  15  16  17  18  19  20  21  23  24  26 0
 3-21G
 ****
 27  28  34  35  38  39  40  41  42  43  44  45  46  47  48 0
 3-21G
 ****


