%nproc=1
%NoSave
%Mem=1900MB
#P OB98/GEN NMR

erre ene a

0 1
  C     -126.191      65.291    -355.228
  O     -124.831      65.662    -355.159
  H     -126.616      65.680    -356.156
  H     -126.740      65.713    -354.384
  H     -126.287      64.198    -355.226
  P     -124.028      65.201    -353.846
  C     -124.237      67.614    -352.906
  O     -124.452      66.225    -352.681
  C     -124.903      68.441    -351.811
  O     -126.338      68.249    -351.822
  C     -124.432      68.110    -350.397
  O     -123.222      68.778    -350.090
  C     -125.607      68.610    -349.566
  O     -125.546      70.037    -349.369
  C     -126.809      68.229    -350.452
  N     -130.418      64.928    -351.690
  C     -130.083      66.135    -352.266
  N     -130.859      66.549    -353.294
  N     -129.082      66.878    -351.870
  C     -128.417      66.354    -350.811
  C     -128.646      65.159    -350.163
  C     -129.738      64.331    -350.638
  O     -130.046      63.218    -350.213
  N     -127.747      64.962    -349.149
  C     -127.002      66.054    -349.153
  N     -127.384      66.934    -350.135
  O     -122.514      65.619    -354.164
  O     -124.139      63.753    -353.505
  H     -126.342      70.325    -348.886
  H     -121.911      64.995    -353.718
  H     -131.191      64.391    -352.051
  H     -126.185      66.250    -348.474
  H     -127.619      68.965    -350.376
  H     -125.622      68.157    -348.570
  H     -131.805      66.204    -353.421
  H     -124.332      67.025    -350.264
  H     -130.634      67.446    -353.708
  H     -124.717      69.499    -352.038
  H     -124.670      67.888    -353.875
  H     -123.160      67.814    -352.925
  P     -122.254      68.111    -348.998
  C     -123.218      69.467    -346.991
  O     -123.039      68.188    -347.591
  O     -121.088      69.190    -348.822
  O     -121.730      66.755    -349.364
  H     -120.312      68.776    -348.393
  H     -123.752      69.357    -346.070
  H     -123.775      70.097    -347.653
  H     -122.262      69.908    -346.799

 6  7  8  9  10  11  12  13  14  15  26  29  33  34 0
 6-311+G(2d,p)
 ****
 36  38  39  40  41 0
 6-311+G(2d,p)
 ****
 1  2  3  4  5  16  17  18  19  20  21  22  23  24  25 0
 3-21G
 ****
 27  28  30  31  32  35  37  42  43  44  45  46  47 0
 3-21G
 ****
 48  49 0
 3-21G
 ****


