%nproc=1
%NoSave
%Mem=1900MB
#P OB98/GEN NMR

erre ene a

0 1
  C      210.891    -225.664    -843.830
  O      211.993    -226.411    -844.300
  P      213.219    -226.768    -843.330
  C      214.452    -227.184    -845.565
  O      214.243    -227.630    -844.227
  C      215.896    -227.438    -846.003
  O      216.816    -226.848    -845.071
  C      216.264    -228.916    -846.086
  O      215.736    -229.502    -847.256
  C      217.788    -228.835    -846.046
  O      218.331    -228.552    -847.346
  C      218.022    -227.639    -845.081
  N      218.403    -228.082    -843.742
  C      219.778    -228.088    -843.462
  O      220.587    -227.764    -844.336
  N      220.194    -228.494    -842.218
  C      219.317    -228.892    -841.350
  N      219.790    -229.292    -840.138
  C      217.861    -228.926    -841.609
  C      217.479    -228.515    -842.820
  O      212.848    -227.376    -842.017
  O      213.986    -225.362    -843.185
  H      219.310    -228.566    -847.236
  H      213.487    -224.740    -842.593
  H      217.173    -229.275    -840.858
  H      216.423    -228.509    -843.103
  H      218.822    -226.984    -845.472
  H      218.235    -229.776    -845.696
  H      215.902    -229.439    -845.190
  H      216.038    -226.957    -846.981
  H      220.799    -229.287    -840.003
  H      214.250    -226.112    -845.598
  H      219.199    -229.653    -839.398
  H      213.738    -227.688    -846.227
  P      214.440    -230.441    -847.163
  C      215.337    -231.162    -849.464
  O      214.207    -231.097    -848.601
  O      213.237    -229.804    -846.550
  O      214.939    -231.684    -846.281
  H      214.253    -231.894    -845.623
  H      215.138    -231.901    -850.244
  H      216.232    -231.450    -848.901
  H      215.493    -230.181    -849.928
  H      210.185    -225.533    -844.623
  H      211.228    -224.707    -843.490
  H      210.425    -226.186    -843.020

 3  4  5  6  7  8  9  10  11  12  13  23  27  28  29  30  32 0
 6-311+G(2d,p)
 ****
 34  35 0
 6-311+G(2d,p)
 ****
 1  2  14  15  16  17  18  19  20  21  22  24  25  26 0
 3-21G
 ****
 31  33  36  37  38  39  40  41  42  43  44  45  46 0
 3-21G
 ****


