%nproc=1
%NoSave
%Mem=1900MB
#P OB98/GEN NMR

erre ene a

0 1
  C     -480.825     108.012     186.140
  O     -479.555     108.181     185.513
  P     -478.334     108.725     186.397
  C     -476.887     106.593     186.253
  O     -477.615     107.475     187.102
  C     -476.102     105.562     187.087
  O     -475.089     106.259     187.857
  C     -476.943     104.789     188.109
  O     -477.568     103.579     187.690
  C     -475.878     104.399     189.131
  O     -475.191     103.211     188.692
  C     -474.913     105.582     189.120
  N     -472.997     107.393     193.504
  C     -472.534     106.472     192.628
  N     -473.108     106.046     191.483
  C     -474.270     106.682     191.267
  C     -474.865     107.644     192.069
  C     -474.178     107.999     193.240
  N     -474.651     108.926     194.139
  N     -476.060     108.061     191.525
  C     -476.196     107.347     190.423
  N     -475.134     106.512     190.216
  O     -478.640     109.878     187.295
  O     -477.262     109.144     185.282
  H     -474.483     103.044     189.340
  H     -476.801     109.955     185.572
  H     -471.581     106.015     192.879
  H     -477.039     107.405     189.750
  H     -473.865     105.266     189.177
  H     -476.306     104.167     190.113
  H     -477.686     105.438     188.578
  H     -475.597     104.864     186.410
  H     -476.193     107.167     185.635
  H     -474.118     109.090     194.979
  H     -475.558     109.345     193.988
  H     -477.603     106.126     185.576
  P     -478.830     103.586     186.710
  C     -477.721     102.901     184.441
  O     -478.245     103.926     185.258
  O     -479.961     104.454     187.142
  O     -479.194     102.032     186.595
  H     -478.536     101.500     186.122
  H     -477.578     103.294     183.432
  H     -478.404     102.050     184.396
  H     -476.752     102.578     184.835
  H     -481.530     107.645     185.424
  H     -481.162     108.953     186.523
  H     -480.736     107.311     186.944

 3  4  5  6  7  8  9  10  11  12  22  25  29  30  31  32 0
 6-311+G(2d,p)
 ****
 33  36  37 0
 6-311+G(2d,p)
 ****
 1  2  13  14  15  16  17  18  19  20  21  23  24  26 0
 3-21G
 ****
 27  28  34  35  38  39  40  41  42  43  44  45  46  47  48 0
 3-21G
 ****


