%nproc=1
%NoSave
%Mem=1900MB
#P OB98/GEN NMR

erre ene a

0 1
  C      524.701     125.870     -94.942
  O      523.493     126.592     -94.799
  H      525.110     125.677     -93.947
  H      525.428     126.452     -95.517
  H      524.509     124.914     -95.441
  P      522.784     127.078     -96.160
  C      520.620     127.589     -94.794
  O      521.641     128.087     -95.647
  C      519.671     128.719     -94.402
  O      520.335     129.655     -93.519
  C      519.167     129.555     -95.575
  O      518.133     128.924     -96.312
  C      518.655     130.775     -94.823
  O      517.412     130.456     -94.173
  C      519.790     130.980     -93.794
  N      520.840     131.883     -94.272
  C      520.431     133.142     -94.725
  O      519.243     133.455     -94.720
  N      521.379     134.010     -95.216
  C      522.631     133.666     -95.228
  N      523.522     134.568     -95.728
  C      523.110     132.358     -94.748
  C      522.177     131.527     -94.286
  O      521.940     125.794     -96.615
  O      523.688     127.631     -97.209
  H      516.743     130.373     -94.875
  H      521.347     126.034     -97.369
  H      524.163     132.108     -94.789
  H      522.454     130.543     -93.914
  H      519.397     131.374     -92.847
  H      518.467     131.632     -95.468
  H      519.985     129.866     -96.234
  H      518.837     128.277     -93.839
  H      523.153     135.433     -96.102
  H      521.093     127.163     -93.897
  H      524.491     134.334     -95.916
  H      520.054     126.802     -95.303
  P      518.083     129.191     -97.896
  C      516.770     127.226     -98.982
  O      516.726     128.544     -98.440
  O      519.218     128.220     -98.465
  O      518.315     130.615     -98.296
  H      519.663     128.618     -99.240
  H      515.790     126.938     -99.300
  H      517.117     126.544     -98.234
  H      517.436     127.207     -99.819

 6  7  8  9  10  11  12  13  14  15  16  26  30  31  32  33  35 0
 6-311+G(2d,p)
 ****
 37  38 0
 6-311+G(2d,p)
 ****
 1  2  3  4  5  17  18  19  20  21  22  23  24  25 0
 3-21G
 ****
 27  28  29  34  36  39  40  41  42  43  44  45  46 0
 3-21G
 ****


