%nproc=1
%NoSave
%Mem=1900MB
#P OB98/GEN NMR

erre ene a

0 1
  C     -541.039     809.690    -245.081
  O     -541.931     810.714    -245.530
  P     -543.246     811.023    -244.673
  C     -542.418     813.309    -243.812
  O     -543.415     812.611    -244.559
  C     -542.427     814.805    -244.161
  O     -541.751     815.070    -245.406
  C     -543.840     815.371    -244.327
  O     -544.466     815.524    -243.076
  C     -543.545     816.668    -245.076
  O     -543.152     817.705    -244.167
  C     -542.348     816.261    -245.969
  N     -542.720     816.047    -247.374
  C     -543.182     817.175    -248.056
  O     -543.302     818.260    -247.465
  N     -543.526     817.053    -249.375
  C     -543.410     815.900    -249.962
  N     -543.761     815.827    -251.280
  C     -542.931     814.683    -249.273
  C     -542.621     814.822    -247.997
  O     -543.365     810.280    -243.382
  O     -544.435     810.616    -245.681
  H     -542.780     818.418    -244.719
  H     -545.197     810.310    -245.161
  H     -542.848     813.747    -249.817
  H     -542.261     813.986    -247.407
  H     -541.580     817.042    -245.950
  H     -544.432     817.025    -245.631
  H     -544.429     814.688    -244.975
  H     -541.902     815.344    -243.357
  H     -544.092     816.673    -251.732
  H     -541.436     812.885    -244.047
  H     -543.657     814.990    -251.839
  H     -542.596     813.144    -242.746
  P     -545.837     814.714    -242.838
  C     -545.742     813.557    -240.524
  O     -546.136     814.692    -241.265
  O     -545.423     813.188    -243.151
  O     -546.985     815.148    -243.701
  H     -546.176     812.723    -243.563
  H     -545.718     813.823    -239.458
  H     -544.746     813.213    -240.817
  H     -546.473     812.755    -240.669
  H     -540.216     809.610    -245.761
  H     -541.560     808.756    -245.040
  H     -540.674     809.938    -244.106

 3  4  5  6  7  8  9  10  11  12  13  23  27  28  29  30  32 0
 6-311+G(2d,p)
 ****
 34  35 0
 6-311+G(2d,p)
 ****
 1  2  14  15  16  17  18  19  20  21  22  24  25  26 0
 3-21G
 ****
 31  33  36  37  38  39  40  41  42  43  44  45  46 0
 3-21G
 ****


