%nproc=1
%NoSave
%Mem=1900MB
#P OB98/GEN NMR

erre ene a

0 1
  C       75.416     532.181     297.144
  O       74.968     532.949     296.054
  H       74.823     531.267     297.200
  H       75.279     532.746     298.072
  H       76.471     531.909     297.039
  P       75.925     534.089     295.464
  C       74.807     535.879     296.954
  O       75.183     535.501     295.633
  C       74.260     537.306     297.001
  O       75.257     538.228     296.526
  C       73.031     537.489     296.105
  O       71.796     537.163     296.725
  C       73.100     538.978     295.777
  O       72.420     539.765     296.767
  C       74.602     539.273     295.795
  N       75.559     542.267     291.764
  C       74.773     542.529     292.866
  N       74.133     543.720     292.872
  N       74.616     541.687     293.858
  C       75.238     540.502     293.660
  C       76.027     540.120     292.599
  C       76.251     541.088     291.545
  O       76.952     540.910     290.553
  N       76.449     538.819     292.722
  C       75.847     538.391     293.815
  N       75.166     539.398     294.460
  O       75.856     533.849     293.879
  O       77.343     534.047     295.943
  H       72.507     540.705     296.514
  H       76.704     534.106     293.472
  H       75.662     542.969     291.047
  H       75.912     537.382     294.212
  H       74.822     540.213     296.319
  H       72.614     539.187     294.813
  H       74.152     544.365     292.102
  H       73.139     536.927     295.170
  H       73.399     543.872     293.566
  H       74.040     537.574     298.042
  H       75.709     535.804     297.564
  H       74.079     535.170     297.358
  P       70.715     536.253     295.974
  C       70.270     537.903     293.977
  O       69.779     537.206     295.102
  O       69.758     535.779     297.168
  O       71.271     535.095     295.206
  H       69.991     534.878     297.458
  H       69.480     538.479     293.542
  H       70.639     537.203     293.257
  H       71.063     538.555     294.279

 6  7  8  9  10  11  12  13  14  15  26  29  33  34 0
 6-311+G(2d,p)
 ****
 36  38  39  40  41 0
 6-311+G(2d,p)
 ****
 1  2  3  4  5  16  17  18  19  20  21  22  23  24  25 0
 3-21G
 ****
 27  28  30  31  32  35  37  42  43  44  45  46  47 0
 3-21G
 ****
 48  49 0
 3-21G
 ****


