%nproc=1
%NoSave
%Mem=1900MB
#P OB98/GEN NMR

erre ene a

0 1
  C      174.292      17.493    -246.384
  O      174.767      17.596    -247.713
  P      175.579      16.360    -248.334
  C      174.777      15.998    -250.810
  O      174.621      15.693    -249.437
  C      173.573      15.484    -251.607
  O      173.417      14.061    -251.359
  C      172.243      16.161    -251.255
  O      171.479      16.247    -252.463
  C      171.607      15.171    -250.292
  O      170.200      15.316    -250.208
  C      172.069      13.843    -250.905
  N      172.017      12.719    -249.969
  C      170.788      12.405    -249.401
  O      169.748      13.026    -249.620
  N      170.789      11.346    -248.527
  C      171.883      10.636    -248.126
  O      171.831       9.708    -247.327
  C      173.162      11.045    -248.725
  C      173.167      12.042    -249.609
  O      175.549      15.326    -247.115
  O      176.939      16.721    -248.823
  H      174.717      15.360    -246.609
  H      169.866      14.675    -249.552
  H      169.903      11.076    -248.131
  H      174.057      10.514    -248.422
  H      174.098      12.362    -250.063
  H      171.467      13.608    -251.793
  H      172.027      15.314    -249.292
  H      172.380      17.156    -250.827
  H      173.795      15.606    -252.676
  H      175.686      15.520    -251.188
  H      174.891      17.081    -250.930
  P      170.630      17.593    -252.727
  C      172.780      19.031    -253.131
  O      171.588      18.834    -252.404
  O      169.645      17.559    -251.462
  O      169.895      17.630    -254.028
  H      170.112      17.394    -250.625
  H      173.098      20.069    -253.004
  H      172.632      18.838    -254.196
  H      173.562      18.371    -252.741
  H      173.775      18.392    -246.119
  H      175.119      17.348    -245.720
  H      173.623      16.661    -246.308

 3  4  5  6  7  8  9  10  11  12  13  24  28  29  30  31  32 0
 6-311+G(2d,p)
 ****
 33  34 0
 6-311+G(2d,p)
 ****
 1  2  14  15  16  17  18  19  20  21  22  23  25  26  27 0
 3-21G
 ****
 35  36  37  38  39  40  41  42  43  44  45 0
 3-21G
 ****


