%nproc=1
%NoSave
%Mem=1900MB
#P OB98/GEN NMR

erre ene a

0 1
  C     -210.192    -496.213      -5.423
  O     -211.214    -496.979      -4.818
  H     -209.610    -496.865      -6.080
  H     -209.525    -495.805      -4.659
  H     -210.616    -495.402      -6.021
  P     -212.310    -496.230      -3.920
  C     -213.809    -495.745      -5.962
  O     -213.071    -495.197      -4.877
  C     -215.107    -494.962      -6.154
  O     -216.012    -495.227      -5.062
  C     -214.918    -493.454      -6.181
  O     -214.394    -493.024      -7.423
  C     -216.335    -492.983      -5.893
  O     -217.142    -493.019      -7.079
  C     -216.811    -494.037      -4.871
  N     -216.733    -493.567      -3.487
  C     -217.697    -492.647      -3.090
  O     -218.563    -492.204      -3.844
  N     -217.613    -492.217      -1.793
  C     -216.619    -492.528      -0.908
  O     -216.542    -492.046       0.218
  C     -215.613    -493.485      -1.391
  C     -215.716    -493.954      -2.637
  O     -211.811    -495.653      -2.637
  O     -213.418    -497.359      -3.661
  H     -217.986    -492.579      -6.851
  H     -213.337    -497.686      -2.745
  H     -218.295    -491.538      -1.490
  H     -214.819    -493.767      -0.717
  H     -214.979    -494.655      -3.011
  H     -217.853    -494.322      -5.077
  H     -216.365    -491.962      -5.517
  H     -214.268    -493.142      -5.360
  H     -215.585    -495.314      -7.082
  H     -214.041    -496.790      -5.737
  H     -213.192    -495.705      -6.868
  P     -213.746    -491.566      -7.552
  C     -211.297    -492.293      -7.309
  O     -212.370    -491.562      -6.729
  O     -214.669    -490.430      -7.252
  O     -213.256    -491.504      -9.077
  H     -213.712    -490.777      -9.534
  H     -210.435    -492.222      -6.679
  H     -211.069    -491.888      -8.273
  H     -211.580    -493.320      -7.412

 6  7  8  9  10  11  12  13  14  15  16  26  31  32  33  34  35 0
 6-311+G(2d,p)
 ****
 36  37 0
 6-311+G(2d,p)
 ****
 1  2  3  4  5  17  18  19  20  21  22  23  24  25 0
 3-21G
 ****
 27  28  29  30  38  39  40  41  42  43  44  45 0
 3-21G
 ****


