%nproc=1
%NoSave
%Mem=1900MB
#P OB98/GEN NMR

erre ene a

0 1
  C      -60.078      37.430     -41.095
  O      -59.041      38.365     -40.850
  P      -59.191      39.326     -39.572
  C      -59.337      38.885     -37.017
  O      -59.583      38.393     -38.327
  C      -60.525      38.603     -36.096
  O      -61.542      39.621     -36.317
  C      -61.191      37.235     -36.314
  O      -61.638      36.785     -35.031
  C      -62.363      37.592     -37.211
  O      -63.372      36.598     -37.266
  C      -62.778      38.927     -36.599
  N      -67.278      39.109     -39.015
  C      -66.758      38.212     -38.148
  N      -65.554      38.234     -37.538
  C      -64.863      39.331     -37.894
  C      -65.254      40.321     -38.779
  C      -66.527      40.183     -39.354
  N      -67.052      41.096     -40.246
  N      -64.268      41.275     -38.916
  C      -63.294      40.867     -38.128
  N      -63.618      39.709     -37.475
  O      -60.546      40.119     -39.876
  O      -58.039      40.252     -39.340
  H      -63.600      36.304     -36.362
  H      -60.478      41.052     -39.596
  H      -67.392      37.362     -37.913
  H      -62.341      41.361     -38.005
  H      -63.311      38.795     -35.650
  H      -61.998      37.734     -38.235
  H      -60.515      36.488     -36.741
  H      -60.188      38.699     -35.058
  H      -59.185      39.968     -37.059
  H      -67.878      40.807     -40.750
  H      -66.411      41.771     -40.645
  H      -58.420      38.432     -36.626
  P      -61.762      35.208     -34.762
  C      -60.066      33.282     -34.861
  O      -60.334      34.626     -35.209
  O      -62.689      34.763     -35.991
  O      -62.274      34.813     -33.421
  H      -62.346      35.099     -36.838
  H      -59.111      32.989     -35.307
  H      -60.852      32.626     -35.245
  H      -59.992      33.185     -33.775
  H      -59.846      36.862     -41.972
  H      -61.001      37.951     -41.242
  H      -60.170      36.771     -40.257

 3  4  5  6  7  8  9  10  11  12  22  25  29  30  31  32 0
 6-311+G(2d,p)
 ****
 33  36  37 0
 6-311+G(2d,p)
 ****
 1  2  13  14  15  16  17  18  19  20  21  23  24  26 0
 3-21G
 ****
 27  28  34  35  38  39  40  41  42  43  44  45  46  47  48 0
 3-21G
 ****


