%nproc=1
%NoSave
%Mem=1900MB
#P OB98/GEN NMR

erre ene a

0 1
  C     -141.740     642.377     658.375
  O     -140.353     642.657     658.169
  P     -139.414     641.381     657.907
  C     -138.468     640.137     655.830
  O     -139.145     641.281     656.314
  C     -137.727     640.463     654.523
  O     -138.623     640.891     653.476
  C     -136.704     641.581     654.671
  O     -135.517     641.075     655.258
  C     -136.522     642.032     653.226
  O     -135.562     641.194     652.536
  C     -137.926     641.834     652.632
  N     -138.723     646.068     649.944
  C     -137.711     645.127     649.835
  N     -136.809     645.328     648.860
  N     -137.614     644.086     650.621
  C     -138.595     644.018     651.557
  C     -139.646     644.875     651.744
  C     -139.746     646.024     650.869
  O     -140.626     646.889     650.927
  N     -140.474     644.444     652.750
  C     -139.834     643.395     653.252
  N     -138.728     643.058     652.518
  O     -140.364     640.139     658.222
  O     -138.176     641.362     658.755
  H     -134.673     641.378     652.883
  H     -140.076     639.692     659.039
  H     -138.737     646.864     649.320
  H     -140.158     642.829     654.127
  H     -137.881     641.408     651.624
  H     -136.130     643.056     653.161
  H     -136.822     646.102     648.211
  H     -137.126     642.396     655.277
  H     -136.067     644.631     648.754
  H     -137.223     639.541     654.190
  H     -139.176     639.325     655.654
  H     -137.766     639.787     656.594
  P     -135.522     640.763     656.831
  C     -136.934     639.173     658.330
  O     -136.363     639.420     657.049
  O     -136.477     641.915     657.425
  O     -134.173     640.792     657.477
  H     -136.070     642.281     658.233
  H     -137.842     638.569     658.199
  H     -137.191     640.102     658.840
  H     -136.214     638.604     658.938
  H     -142.268     643.293     658.539
  H     -141.853     641.742     659.229
  H     -142.137     641.886     657.511

 3  4  5  6  7  8  9  10  11  12  23  26  30  31 0
 6-311+G(2d,p)
 ****
 33  35  36  37  38 0
 6-311+G(2d,p)
 ****
 1  2  13  14  15  16  17  18  19  20  21  22  24  25 0
 3-21G
 ****
 27  28  29  32  34  39  40  41  42  43  44  45  46  47  48  49 0
 3-21G
 ****


