%nproc=1
%NoSave
%Mem=1900MB
#P OB98/GEN NMR

erre ene a

0 1
  C     -435.997    -849.289    -618.310
  O     -436.695    -848.056    -618.379
  P     -437.837    -847.904    -619.489
  C     -439.194    -846.771    -617.584
  O     -438.843    -846.769    -618.961
  C     -439.868    -845.447    -617.212
  O     -440.880    -845.101    -618.176
  C     -440.594    -845.478    -615.874
  O     -439.702    -845.297    -614.779
  C     -441.514    -844.281    -616.013
  O     -440.791    -843.064    -615.754
  C     -441.917    -844.356    -617.494
  N     -446.901    -843.985    -616.686
  C     -445.904    -843.053    -616.521
  N     -446.282    -841.851    -615.999
  N     -444.648    -843.242    -616.824
  C     -444.406    -844.484    -617.327
  C     -445.309    -845.507    -617.538
  C     -446.697    -845.271    -617.180
  O     -447.608    -846.084    -617.253
  N     -444.704    -846.614    -618.057
  C     -443.429    -846.271    -618.166
  N     -443.196    -845.001    -617.692
  O     -438.687    -849.250    -619.333
  O     -437.331    -847.718    -620.887
  H     -440.758    -842.959    -614.782
  H     -439.239    -849.395    -620.128
  H     -447.847    -843.784    -616.435
  H     -442.653    -846.904    -618.563
  H     -441.964    -843.357    -617.961
  H     -442.357    -844.300    -615.315
  H     -447.220    -841.662    -615.684
  H     -441.194    -846.383    -615.763
  H     -445.564    -841.164    -615.814
  H     -439.103    -844.659    -617.228
  H     -438.290    -846.906    -616.982
  H     -439.872    -847.616    -617.387
  P     -440.045    -846.095    -613.429
  C     -437.503    -846.547    -613.123
  O     -438.700    -846.053    -612.557
  O     -440.142    -847.617    -613.925
  O     -441.286    -845.648    -612.746
  H     -440.724    -848.128    -613.342
  H     -436.661    -846.201    -612.519
  H     -437.378    -846.169    -614.146
  H     -437.513    -847.636    -613.132
  H     -435.269    -849.244    -617.527
  H     -435.506    -849.474    -619.243
  H     -436.689    -850.080    -618.109

 3  4  5  6  7  8  9  10  11  12  23  26  30  31 0
 6-311+G(2d,p)
 ****
 33  35  36  37  38 0
 6-311+G(2d,p)
 ****
 1  2  13  14  15  16  17  18  19  20  21  22  24  25 0
 3-21G
 ****
 27  28  29  32  34  39  40  41  42  43  44  45  46  47  48  49 0
 3-21G
 ****


