%nproc=1
%NoSave
%Mem=1900MB
#P OB98/GEN NMR

erre ene a

0 1
  C       65.672      99.510    -344.047
  O       65.773     100.480    -345.092
  P       64.554     100.544    -346.135
  C       63.850      99.318    -348.315
  O       64.799      99.427    -347.261
  C       64.532      98.785    -349.581
  O       65.442      99.758    -350.143
  C       65.377      97.540    -349.336
  O       64.559      96.394    -349.167
  C       66.239      97.528    -350.594
  O       65.502      96.989    -351.706
  C       66.493      99.028    -350.826
  N       71.559      98.825    -351.558
  C       70.523      98.267    -352.230
  N       69.203      98.371    -351.971
  C       68.988      99.151    -350.895
  C       69.939      99.786    -350.113
  C       71.285      99.597    -350.478
  N       72.338     100.154    -349.784
  N       69.338     100.495    -349.094
  C       68.048     100.272    -349.241
  N       67.782      99.470    -350.324
  O       64.805     101.926    -346.910
  O       63.207     100.512    -345.489
  H       66.127      96.893    -352.453
  H       64.137     102.584    -346.641
  H       70.793      97.663    -353.091
  H       67.269     100.664    -348.597
  H       66.448      99.298    -351.887
  H       67.152      96.932    -350.484
  H       66.008      97.682    -348.449
  H       63.751      98.564    -350.323
  H       63.398     100.289    -348.521
  H       73.275      99.906    -350.066
  H       72.154     100.658    -348.929
  H       63.039      98.656    -347.996
  P       64.496      95.729    -347.708
  C       66.286      94.774    -346.128
  O       66.029      95.347    -347.400
  O       63.839      94.308    -348.029
  O       63.810      96.548    -346.666
  H       64.250      93.887    -348.811
  H       67.353      94.534    -346.066
  H       65.704      93.857    -346.002
  H       66.035      95.488    -345.340
  H       66.539      99.566    -343.423
  H       65.603      98.531    -344.474
  H       64.798      99.706    -343.462

 3  4  5  6  7  8  9  10  11  12  22  25  29  30  31  32 0
 6-311+G(2d,p)
 ****
 33  36  37 0
 6-311+G(2d,p)
 ****
 1  2  13  14  15  16  17  18  19  20  21  23  24  26 0
 3-21G
 ****
 27  28  34  35  38  39  40  41  42  43  44  45  46  47  48 0
 3-21G
 ****


