%nproc=1
%NoSave
%Mem=1900MB
#P OB98/GEN NMR

erre ene a

0 1
  C     -167.220    -191.781    -187.829
  O     -167.882    -192.981    -188.204
  P     -167.033    -194.078    -189.019
  C     -168.385    -196.113    -188.134
  O     -167.136    -195.429    -188.160
  C     -168.287    -197.375    -187.281
  O     -167.990    -197.028    -185.914
  C     -169.565    -198.198    -187.226
  O     -169.709    -199.041    -188.361
  C     -169.316    -199.031    -185.978
  O     -168.433    -200.127    -186.288
  C     -168.609    -198.027    -185.061
  N     -169.878    -197.502    -180.135
  C     -168.976    -198.294    -180.752
  N     -168.704    -198.384    -182.071
  C     -169.508    -197.570    -182.778
  C     -170.500    -196.735    -182.288
  C     -170.670    -196.708    -180.895
  N     -171.573    -195.882    -180.266
  N     -171.117    -196.058    -183.318
  C     -170.500    -196.468    -184.410
  N     -169.516    -197.375    -184.133
  O     -165.521    -193.607    -188.782
  O     -167.369    -194.187    -190.465
  H     -168.882    -200.669    -186.962
  H     -164.949    -193.950    -189.498
  H     -168.387    -198.931    -180.102
  H     -170.729    -196.131    -185.410
  H     -167.810    -198.488    -184.471
  H     -170.233    -199.465    -185.568
  H     -170.444    -197.562    -187.073
  H     -167.455    -197.976    -187.666
  H     -168.661    -196.391    -189.155
  H     -171.505    -195.785    -179.264
  H     -172.013    -195.151    -180.817
  H     -169.151    -195.440    -187.735
  P     -171.089    -198.929    -189.172
  C     -169.837    -197.679    -191.076
  O     -170.906    -197.673    -190.149
  O     -172.123    -198.412    -188.064
  O     -171.527    -200.206    -189.810
  H     -173.032    -198.679    -188.298
  H     -170.036    -196.930    -191.847
  H     -169.736    -198.656    -191.556
  H     -168.902    -197.422    -190.569
  H     -167.901    -191.149    -187.297
  H     -166.875    -191.275    -188.706
  H     -166.386    -192.015    -187.201

 3  4  5  6  7  8  9  10  11  12  22  25  29  30  31  32 0
 6-311+G(2d,p)
 ****
 33  36  37 0
 6-311+G(2d,p)
 ****
 1  2  13  14  15  16  17  18  19  20  21  23  24  26 0
 3-21G
 ****
 27  28  34  35  38  39  40  41  42  43  44  45  46  47  48 0
 3-21G
 ****


