%nproc=1
%NoSave
%Mem=1900MB
#P OB98/GEN NMR

erre ene a

0 1
  C     -135.602    -251.525      15.975
  O     -136.964    -251.387      15.623
  H     -134.988    -251.225      15.120
  H     -135.366    -252.560      16.231
  H     -135.364    -250.870      16.819
  P     -138.066    -252.003      16.616
  C     -139.813    -252.250      14.729
  O     -139.487    -251.622      15.968
  C     -141.260    -251.951      14.328
  O     -142.151    -252.266      15.415
  C     -141.517    -250.486      14.014
  O     -140.901    -250.033      12.827
  C     -143.028    -250.379      14.165
  O     -143.743    -250.730      12.984
  C     -143.311    -251.419      15.277
  N     -143.678    -250.786      16.537
  C     -144.815    -249.988      16.506
  O     -145.478    -249.789      15.487
  N     -145.151    -249.379      17.683
  C     -144.445    -249.452      18.849
  O     -144.776    -248.848      19.862
  C     -143.237    -250.290      18.815
  C     -142.912    -250.911      17.678
  O     -137.934    -251.614      18.057
  O     -137.965    -253.579      16.363
  H     -144.693    -250.604      13.176
  H     -138.396    -254.085      17.093
  H     -145.978    -248.803      17.681
  H     -142.650    -250.370      19.721
  H     -142.024    -251.535      17.627
  H     -144.139    -252.075      14.978
  H     -143.332    -249.365      14.434
  H     -141.086    -249.884      14.822
  H     -141.522    -252.590      13.478
  H     -139.694    -253.331      14.862
  H     -139.122    -251.911      13.951
  P     -139.771    -248.906      12.799
  C     -141.105    -246.771      12.157
  O     -140.204    -247.786      11.729
  O     -138.352    -249.375      12.810
  O     -140.040    -248.153      14.202
  H     -139.175    -247.859      14.546
  H     -141.301    -246.102      11.345
  H     -140.670    -246.228      12.970
  H     -142.022    -247.220      12.478

 6  7  8  9  10  11  12  13  14  15  16  26  31  32  33  34  35 0
 6-311+G(2d,p)
 ****
 36  37 0
 6-311+G(2d,p)
 ****
 1  2  3  4  5  17  18  19  20  21  22  23  24  25 0
 3-21G
 ****
 27  28  29  30  38  39  40  41  42  43  44  45 0
 3-21G
 ****


