%nproc=1
%NoSave
%Mem=1900MB
#P OB98/GEN NMR

erre ene a

0 1
  C     -898.920     947.741     381.830
  O     -898.160     948.616     381.007
  P     -896.590     948.736     381.287
  C     -895.010     950.358     382.542
  O     -896.340     950.033     382.219
  C     -894.950     951.766     383.158
  O     -894.960     952.773     382.143
  C     -896.120     952.064     384.115
  O     -895.680     952.911     385.189
  C     -897.060     952.890     383.257
  O     -897.930     953.710     384.044
  C     -896.050     953.674     382.389
  N     -899.290     956.998     380.403
  C     -898.750     956.944     381.672
  N     -899.210     957.859     382.567
  N     -897.840     956.086     382.043
  C     -897.480     955.222     381.048
  C     -897.950     955.180     379.746
  C     -898.960     956.132     379.371
  O     -899.510     956.220     378.270
  N     -897.330     954.188     379.049
  C     -896.530     953.596     379.915
  N     -896.620     954.175     381.166
  O     -896.020     949.187     379.848
  O     -895.950     947.467     381.756
  H     -898.560     954.159     383.419
  H     -895.550     948.429     379.426
  H     -900.000     957.675     380.164
  H     -895.880     952.740     379.708
  H     -895.620     954.523     382.946
  H     -897.680     952.236     382.632
  H     -899.960     958.529     382.356
  H     -896.610     951.189     384.536
  H     -898.870     957.823     383.523
  H     -893.990     951.863     383.703
  H     -894.390     950.362     381.637
  H     -894.600     949.626     383.244
  P     -896.120     952.491     386.659
  C     -898.130     953.265     388.139
  O     -897.630     953.020     386.833
  O     -895.250     953.467     387.608
  O     -895.920     951.040     386.972
  H     -895.120     953.026     388.483
  H     -898.360     954.341     388.230
  H     -897.420     952.978     388.926
  H     -899.050     952.700     388.272
  H     -899.946     947.766     381.526
  H     -898.843     948.054     382.850
  H     -898.544     946.744     381.734

 3  4  5  6  7  8  9  10  11  12  23  26  30  31 0
 6-311+G(2d,p)
 ****
 33  35  36  37  38 0
 6-311+G(2d,p)
 ****
 1  2  13  14  15  16  17  18  19  20  21  22  24  25 0
 3-21G
 ****
 27  28  29  32  34  39  40  41  42  43  44  45  46  47  48  49 0
 3-21G
 ****


