%nproc=1
%NoSave
%Mem=1900MB
#P OB98/GEN NMR

erre ene a

0 1
  C      711.954     663.377    -604.130
  O      712.167     664.638    -603.459
  P      713.144     665.667    -604.172
  C      711.306     667.519    -603.984
  O      712.247     666.857    -604.824
  C      711.789     668.943    -603.704
  O      712.928     668.974    -602.819
  C      712.259     669.698    -604.956
  O      711.151     670.094    -605.754
  C      713.049     670.829    -604.337
  O      712.161     671.866    -603.874
  C      713.708     670.127    -603.128
  N      718.417     669.762    -601.095
  C      717.242     670.195    -600.590
  N      716.032     670.269    -601.189
  C      716.107     669.812    -602.462
  C      717.220     669.322    -603.110
  C      718.432     669.312    -602.377
  N      719.627     668.874    -602.904
  N      716.901     668.947    -604.395
  C      715.625     669.211    -604.538
  N      715.092     669.731    -603.381
  O      713.686     664.879    -605.451
  O      714.265     666.138    -603.314
  H      711.733     672.243    -604.664
  H      714.620     664.620    -605.318
  H      717.280     670.536    -599.565
  H      715.044     669.075    -605.440
  H      713.725     670.780    -602.227
  H      713.778     671.281    -605.044
  H      712.920     669.033    -605.556
  H      710.963     669.502    -603.235
  H      711.188     666.975    -603.041
  H      720.452     668.957    -602.350
  H      719.665     668.609    -603.889
  H      710.335     667.518    -604.474
  P      710.874     669.256    -607.100
  C      708.476     668.892    -606.280
  O      709.664     668.274    -606.706
  O      712.141     668.277    -607.148
  O      710.651     670.098    -608.317
  H      712.305     667.858    -606.278
  H      707.717     668.110    -606.071
  H      708.081     669.556    -607.066
  H      708.646     669.454    -605.356
  H      711.282     662.776    -603.554
  H      712.888     662.866    -604.235
  H      711.534     663.555    -605.098

 3  4  5  6  7  8  9  10  11  12  22  25  29  30  31  32 0
 6-311+G(2d,p)
 ****
 33  36  37 0
 6-311+G(2d,p)
 ****
 1  2  13  14  15  16  17  18  19  20  21  23  24  26 0
 3-21G
 ****
 27  28  34  35  38  39  40  41  42  43  44  45  46  47  48 0
 3-21G
 ****


