%nproc=1
%NoSave
%Mem=1900MB
#P OB98/GEN NMR

erre ene a

0 1
  C     -226.094    -460.016    -323.541
  O     -226.939    -459.575    -322.488
  P     -228.401    -460.228    -322.382
  C     -229.546    -458.082    -323.302
  O     -229.292    -459.471    -323.487
  C     -230.230    -457.497    -324.522
  O     -229.501    -457.861    -325.716
  C     -231.650    -457.991    -324.754
  O     -232.591    -457.297    -323.942
  C     -231.848    -457.655    -326.223
  O     -232.208    -456.263    -326.360
  C     -230.447    -457.908    -326.816
  N     -231.355    -460.490    -331.080
  C     -231.618    -459.169    -330.767
  N     -232.184    -458.416    -331.740
  N     -231.356    -458.628    -329.608
  C     -230.757    -459.484    -328.746
  C     -230.445    -460.815    -328.930
  C     -230.783    -461.412    -330.204
  O     -230.633    -462.590    -330.510
  N     -229.834    -461.340    -327.826
  C     -229.739    -460.331    -326.987
  N     -230.319    -459.185    -327.484
  O     -228.958    -459.648    -320.999
  O     -228.428    -461.723    -322.404
  H     -232.122    -456.028    -327.299
  H     -229.634    -460.249    -320.634
  H     -231.559    -460.850    -331.998
  H     -229.264    -460.383    -326.017
  H     -230.157    -457.114    -327.511
  H     -232.651    -458.237    -326.695
  H     -232.282    -458.739    -332.701
  H     -231.719    -459.080    -324.614
  H     -232.343    -457.443    -331.550
  H     -230.207    -456.400    -324.443
  H     -228.594    -457.565    -323.141
  H     -230.169    -457.952    -322.410
  P     -233.510    -458.203    -322.980
  C     -235.363    -458.481    -324.788
  O     -234.393    -459.109    -323.967
  O     -234.558    -457.148    -322.387
  O     -232.762    -458.928    -321.910
  H     -234.892    -457.453    -321.519
  H     -235.022    -457.492    -325.127
  H     -236.288    -458.369    -324.221
  H     -235.551    -459.110    -325.664
  H     -225.159    -459.499    -323.488
  H     -226.561    -459.813    -324.482
  H     -225.925    -461.068    -323.446

 3  4  5  6  7  8  9  10  11  12  23  26  30  31  33  0
 6-311+G(2d,p)
 ****
 35  36  37  38 0
 6-311+G(2d,p)
 ****
 1  2  13  14  15  16  17  18  19  20  21  22  24  25  27  28  29 0
 3-21G
 ****
 32  34  39  40  41  42  43  44  45  46  47  48  49 0
 3-21G
 ****


