%nproc=1
%NoSave
%Mem=1900MB
#P OB98/GEN NMR

erre ene a

0 1
  C      -21.379     -11.603       5.492
  O      -22.203     -12.203       4.510
  H      -20.370     -11.493       5.085
  H      -21.322     -12.228       6.388
  H      -21.762     -10.614       5.755
  P      -23.696     -12.614       4.923
  C      -22.896     -15.072       4.837
  O      -23.575     -14.068       5.582
  C      -21.978     -15.874       5.754
  O      -20.990     -15.010       6.350
  C      -22.713     -16.528       6.916
  O      -23.426     -17.668       6.484
  C      -21.563     -16.795       7.867
  O      -20.839     -17.973       7.492
  C      -20.699     -15.528       7.670
  N      -20.937     -14.517       8.694
  C      -20.018     -14.483       9.749
  O      -19.073     -15.269       9.777
  N      -20.213     -13.569      10.754
  C      -21.218     -12.754      10.705
  N      -21.353     -11.874      11.733
  C      -22.200     -12.748       9.605
  C      -22.004     -13.649       8.646
  O      -24.745     -12.504       3.859
  O      -24.012     -11.671       6.178
  H      -20.104     -18.049       8.132
  H      -24.407     -10.831       5.882
  H      -23.020     -12.046       9.603
  H      -22.679     -13.711       7.798
  H      -19.632     -15.784       7.681
  H      -21.914     -16.932       8.888
  H      -23.386     -15.806       7.390
  H      -21.451     -16.622       5.149
  H      -20.660     -11.921      12.473
  H      -22.309     -14.562       4.066
  H      -22.041     -11.139      11.759
  H      -23.612     -15.738       4.344
  P      -25.027     -17.646       6.401
  C      -24.865     -18.508       8.826
  O      -25.532     -17.627       7.926
  O      -25.636     -18.699       5.538
  O      -25.343     -16.156       5.903
  H      -25.132     -16.044       4.945
  H      -25.287     -18.405       9.804
  H      -23.824     -18.263       8.859
  H      -24.983     -19.517       8.491

 6  7  8  9  10  11  12  13  14  15  16  26  30  31  32  33  35 0
 6-311+G(2d,p)
 ****
 37  38 0
 6-311+G(2d,p)
 ****
 1  2  3  4  5  17  18  19  20  21  22  23  24  25 0
 3-21G
 ****
 27  28  29  34  36  39  40  41  42  43  44  45  46 0
 3-21G
 ****


