%nproc=1
%NoSave
%Mem=1900MB
#P OB98/GEN NMR

erre ene a

0 1
  C      107.387     -45.174     -11.114
  O      106.148     -44.887     -10.496
  H      107.218     -45.347     -12.180
  H      107.829     -46.074     -10.677
  H      108.072     -44.330     -10.995
  P      106.174     -44.705      -8.900
  C      105.911     -47.274      -8.518
  O      106.724     -46.118      -8.370
  C      106.762     -48.527      -8.343
  O      107.803     -48.581      -9.342
  C      107.481     -48.609      -7.000
  O      106.634     -49.028      -5.943
  C      108.540     -49.648      -7.323
  O      107.940     -50.957      -7.343
  C      108.968     -49.210      -8.742
  N      110.107     -48.291      -8.742
  C      111.379     -48.868      -8.656
  O      111.509     -50.089      -8.574
  N      112.480     -48.043      -8.629
  C      112.326     -46.757      -8.694
  N      113.449     -45.989      -8.650
  C      111.006     -46.109      -8.803
  C      109.954     -46.924      -8.820
  O      104.627     -44.758      -8.489
  O      106.906     -43.510      -8.387
  H      108.564     -51.547      -7.805
  H      104.542     -44.780      -7.505
  H      110.927     -45.031      -8.843
  H      108.951     -46.518      -8.896
  H      109.220     -50.081      -9.361
  H      109.350     -49.676      -6.590
  H      107.981     -47.666      -6.752
  H      106.113     -49.402      -8.501
  H      114.334     -46.458      -8.513
  H      105.464     -47.256      -9.517
  H      113.417     -44.985      -8.513
  H      105.112     -47.269      -7.769
  P      107.012     -48.556      -4.455
  C      108.422     -50.731      -4.283
  O      108.355     -49.332      -4.043
  O      105.892     -49.261      -3.558
  O      107.043     -47.072      -4.251
  H      105.600     -48.677      -2.833
  H      109.371     -51.104      -3.958
  H      108.304     -50.919      -5.330
  H      107.641     -51.224      -3.742

 6  7  8  9  10  11  12  13  14  15  16  26  30  31  32  33  35 0
 6-311+G(2d,p)
 ****
 37  38 0
 6-311+G(2d,p)
 ****
 1  2  3  4  5  17  18  19  20  21  22  23  24  25 0
 3-21G
 ****
 27  28  29  34  36  39  40  41  42  43  44  45  46 0
 3-21G
 ****


