%nproc=1
%NoSave
%Mem=1900MB
#P OB98/GEN NMR

erre ene a

0 1
  C      116.569     184.232    -298.685
  O      117.264     185.100    -297.775
  P      116.989     186.675    -297.877
  C      119.073     187.237    -299.336
  O      117.658     187.204    -299.241
  C      119.523     188.386    -300.238
  O      118.724     189.575    -300.026
  C      120.975     188.809    -300.024
  O      121.876     187.978    -300.728
  C      120.965     190.204    -300.631
  O      121.067     190.108    -302.073
  C      119.578     190.728    -300.224
  N      119.249     195.416    -298.349
  C      119.159     194.980    -299.653
  N      118.934     195.919    -300.595
  N      119.269     193.720    -300.002
  C      119.472     192.887    -298.951
  C      119.587     193.203    -297.618
  C      119.468     194.606    -297.248
  O      119.562     195.055    -296.103
  N      119.797     192.092    -296.852
  C      119.789     191.094    -297.716
  N      119.618     191.530    -299.010
  O      117.955     187.276    -296.749
  O      115.562     187.063    -297.658
  H      120.921     191.006    -302.419
  H      117.582     188.116    -296.419
  H      119.161     196.402    -298.132
  H      119.917     190.050    -297.457
  H      119.122     191.349    -301.000
  H      121.807     190.809    -300.298
  H      118.790     196.892    -300.392
  H      121.209     188.863    -298.946
  H      118.828     195.604    -301.559
  H      119.400     188.068    -301.287
  H      119.447     186.282    -299.727
  H      119.499     187.325    -298.329
  P      122.903     187.081    -299.875
  C      124.669     188.954    -300.194
  O      124.005     188.094    -299.298
  O      123.683     186.256    -301.003
  O      122.248     186.174    -298.873
  H      123.943     185.379    -300.653
  H      125.253     189.684    -299.617
  H      123.946     189.510    -300.815
  H      125.345     188.386    -300.843
  H      116.853     183.218    -298.497
  H      116.823     184.493    -299.691
  H      115.514     184.339    -298.544

 3  4  5  6  7  8  9  10  11  12  23  26  30  31 0
 6-311+G(2d,p)
 ****
 33  35  36  37  38 0
 6-311+G(2d,p)
 ****
 1  2  13  14  15  16  17  18  19  20  21  22  24  25 0
 3-21G
 ****
 27  28  29  32  34  39  40  41  42  43  44  45  46  47  48  49 0
 3-21G
 ****


