%nproc=1
%NoSave
%Mem=1900MB
#P OB98/GEN NMR

erre ene a

0 1
  C       92.324      98.958     -90.757
  O       92.517      98.887     -92.152
  H       92.917      98.173     -90.280
  H       91.271      98.793     -90.517
  H       92.646      99.929     -90.371
  P       91.863     100.047     -93.049
  C       91.771     102.587     -92.517
  O       92.575     101.420     -92.614
  C       92.612     103.773     -92.041
  O       93.128     103.478     -90.717
  C       93.801     104.090     -92.949
  O       93.959     105.509     -93.020
  C       94.985     103.485     -92.217
  O       96.220     104.116     -92.553
  C       94.559     103.648     -90.753
  N       95.240     102.689     -89.886
  C       96.422     103.124     -89.275
  O       96.844     104.261     -89.486
  N       97.123     102.248     -88.491
  C       96.729     101.015     -88.394
  N       97.487     100.185     -87.625
  C       95.528     100.494     -89.075
  C       94.833     101.379     -89.789
  O       90.388     100.194     -92.448
  O       91.856      99.792     -94.518
  H       96.472     103.839     -93.461
  H       89.749     100.457     -93.137
  H       95.255      99.453     -88.983
  H       93.943     101.088     -90.330
  H       94.780     104.663     -90.396
  H       95.071     102.422     -92.471
  H       93.693     103.684     -93.961
  H       91.955     104.644     -91.940
  H       98.313     100.576     -87.191
  H       90.968     102.408     -91.796
  H       97.302      99.198     -87.517
  H       91.325     102.803     -93.495
  P       92.676     106.354     -93.480
  C       91.288     107.921     -91.942
  O       91.752     106.602     -92.195
  O       91.840     105.309     -94.357
  O       93.017     107.582     -94.260
  H       91.890     105.551     -95.301
  H       90.688     107.924     -91.056
  H       90.701     108.258     -92.771
  H       92.125     108.574     -91.808

 6  7  8  9  10  11  12  13  14  15  16  26  30  31  32  33  35 0
 6-311+G(2d,p)
 ****
 37  38 0
 6-311+G(2d,p)
 ****
 1  2  3  4  5  17  18  19  20  21  22  23  24  25 0
 3-21G
 ****
 27  28  29  34  36  39  40  41  42  43  44  45  46 0
 3-21G
 ****


