%nproc=1
%NoSave
%Mem=1900MB
#P OB98/GEN NMR

erre ene a

0 1
  C     -204.171    -550.271    -422.636
  O     -203.883    -550.486    -424.002
  H     -204.311    -551.239    -422.150
  H     -205.090    -549.689    -422.536
  H     -203.342    -549.745    -422.150
  P     -203.553    -549.189    -424.887
  C     -203.969    -549.936    -427.339
  O     -203.013    -549.734    -426.304
  C     -203.808    -551.329    -427.952
  O     -204.270    -552.328    -426.995
  C     -204.605    -551.538    -429.247
  O     -203.843    -552.397    -430.106
  C     -205.830    -552.314    -428.771
  O     -206.465    -553.042    -429.824
  C     -205.194    -553.183    -427.692
  N     -207.269    -557.508    -426.172
  C     -206.237    -557.270    -427.072
  N     -205.675    -558.356    -427.653
  N     -205.802    -556.077    -427.369
  C     -206.439    -555.089    -426.684
  C     -207.465    -555.191    -425.775
  C     -207.960    -556.522    -425.474
  O     -208.880    -556.792    -424.708
  N     -207.852    -553.952    -425.328
  C     -207.053    -553.105    -425.956
  N     -206.182    -553.746    -426.792
  O     -202.234    -548.611    -424.180
  O     -204.634    -548.167    -424.965
  H     -206.763    -552.397    -430.499
  H     -202.474    -547.935    -423.524
  H     -207.575    -558.448    -425.986
  H     -207.079    -552.026    -425.850
  H     -204.627    -554.021    -428.107
  H     -206.567    -551.625    -428.337
  H     -205.932    -559.300    -427.434
  H     -204.868    -550.617    -429.782
  H     -204.893    -558.206    -428.270
  H     -202.743    -551.517    -428.117
  H     -203.819    -549.179    -428.116
  H     -204.981    -549.825    -426.924
  P     -203.416    -551.840    -431.549
  C     -203.229    -553.965    -433.039
  O     -202.550    -552.969    -432.281
  O     -202.313    -550.731    -431.188
  O     -204.546    -551.261    -432.342
  H     -202.303    -550.041    -431.880
  H     -202.515    -554.640    -433.462
  H     -203.786    -553.498    -433.824
  H     -203.897    -554.505    -432.401

 6  7  8  9  10  11  12  13  14  15  26  29  33  34 0
 6-311+G(2d,p)
 ****
 36  38  39  40  41 0
 6-311+G(2d,p)
 ****
 1  2  3  4  5  16  17  18  19  20  21  22  23  24  25 0
 3-21G
 ****
 27  28  30  31  32  35  37  42  43  44  45  46  47 0
 3-21G
 ****
 48  49 0
 3-21G
 ****


