%nproc=1
%NoSave
%Mem=1900MB
#P OB98/GEN NMR

erre ene a

0 1
  C      305.370     -46.073       2.425
  O      304.005     -46.205       2.856
  P      303.148     -47.472       2.360
  C      303.263     -49.114       4.393
  O      302.497     -48.185       3.641
  C      302.337     -50.107       5.102
  O      303.067     -51.295       5.485
  C      301.725     -49.584       6.393
  O      300.658     -48.684       6.148
  C      301.285     -50.879       7.065
  O      300.012     -51.315       6.556
  C      302.402     -51.853       6.641
  N      303.348     -52.127       7.719
  C      302.918     -53.000       8.712
  O      301.788     -53.484       8.740
  N      303.825     -53.275       9.699
  C      305.068     -52.721       9.824
  O      305.829     -52.994      10.744
  C      305.434     -51.744       8.790
  C      304.570     -51.491       7.804
  O      304.299     -48.514       1.952
  O      302.229     -47.224       1.210
  H      299.791     -52.142       7.029
  H      303.966     -49.112       1.257
  H      303.545     -53.929      10.412
  H      306.402     -51.264       8.865
  H      304.827     -50.773       7.032
  H      301.968     -52.803       6.308
  H      301.177     -50.772       8.148
  H      302.499     -49.108       7.007
  H      301.550     -50.405       4.396
  H      303.849     -48.576       5.142
  H      303.948     -49.639       3.721
  P      300.826     -47.193       6.720
  C      301.489     -45.561       4.788
  O      300.464     -46.228       5.493
  O      302.418     -47.102       6.868
  O      300.069     -46.963       7.985
  H      302.879     -47.610       6.179
  H      302.403     -46.159       4.745
  H      301.702     -44.606       5.278
  H      301.146     -45.368       3.768
  H      305.791     -45.182       2.842
  H      305.403     -46.017       1.357
  H      305.932     -46.922       2.755

 3  4  5  6  7  8  9  10  11  12  13  23  28  29  30  31  32 0
 6-311+G(2d,p)
 ****
 33  34 0
 6-311+G(2d,p)
 ****
 1  2  14  15  16  17  18  19  20  21  22  24  25  26 0
 3-21G
 ****
 27  35  36  37  38  39  40  41  42  43  44  45 0
 3-21G
 ****


