%nproc=1
%NoSave
%Mem=1900MB
#P OB98/GEN NMR

erre ene a

0 1
  C      549.157     161.588     206.942
  O      550.043     160.574     207.366
  P      550.535     160.398     208.875
  C      553.059     160.878     208.363
  O      551.884     161.251     209.076
  C      554.233     160.669     209.325
  O      555.342     160.093     208.582
  C      554.741     162.006     209.902
  O      555.067     161.965     211.290
  C      555.856     162.397     208.941
  O      556.766     163.337     209.470
  C      556.439     161.030     208.576
  N      560.655     162.050     205.917
  C      560.470     162.044     207.288
  N      561.484     162.558     208.024
  N      559.366     161.617     207.864
  C      558.403     161.245     206.994
  C      558.471     161.202     205.621
  C      559.706     161.647     204.990
  O      559.869     161.768     203.781
  N      557.282     160.840     205.057
  C      556.470     160.693     206.093
  N      557.103     160.964     207.285
  O      550.490     159.013     209.435
  O      549.454     161.289     209.674
  H      557.365     163.605     208.759
  H      549.309     160.853     210.538
  H      561.491     162.468     205.529
  H      555.425     160.424     206.036
  H      557.174     160.698     209.310
  H      555.387     162.860     208.067
  H      562.267     163.018     207.600
  H      553.950     162.771     209.855
  H      561.266     162.797     208.998
  H      553.947     159.958     210.104
  H      553.272     161.697     207.671
  H      552.881     159.979     207.774
  P      554.690     163.005     212.434
  C      556.831     164.397     212.212
  O      555.423     164.401     212.121
  O      555.468     162.479     213.736
  O      553.226     163.125     212.718
  H      554.900     162.598     214.521
  H      557.179     165.438     212.249
  H      557.264     163.922     211.331
  H      557.158     163.877     213.114
  H      548.983     161.493     205.891
  H      549.587     162.546     207.147
  H      548.229     161.494     207.467

 3  4  5  6  7  8  9  10  11  12  23  26  30  31 0
 6-311+G(2d,p)
 ****
 33  35  36  37  38 0
 6-311+G(2d,p)
 ****
 1  2  13  14  15  16  17  18  19  20  21  22  24  25 0
 3-21G
 ****
 27  28  29  32  34  39  40  41  42  43  44  45  46  47  48  49 0
 3-21G
 ****


