%nproc=1
%NoSave
%Mem=1900MB
#P OB98/GEN NMR

erre ene a

0 1
  C     -162.246    -323.317    -766.976
  O     -163.260    -324.045    -766.303
  H     -162.348    -323.482    -768.051
  H     -161.253    -323.653    -766.668
  H     -162.353    -322.247    -766.773
  P     -163.224    -324.086    -764.701
  C     -163.669    -326.581    -764.168
  O     -164.221    -325.274    -764.278
  C     -164.653    -327.505    -763.452
  O     -165.056    -326.929    -762.190
  C     -165.943    -327.731    -764.232
  O     -165.734    -328.622    -765.306
  C     -166.864    -328.215    -763.134
  O     -166.641    -329.601    -762.856
  C     -166.419    -327.332    -761.941
  N     -167.284    -326.172    -761.759
  C     -168.219    -326.266    -760.714
  O     -168.281    -327.276    -760.019
  N     -169.080    -325.204    -760.518
  C     -168.988    -324.147    -761.263
  N     -169.867    -323.140    -761.011
  C     -168.010    -324.004    -762.364
  C     -167.200    -325.047    -762.550
  O     -163.467    -322.793    -763.983
  O     -161.776    -324.691    -764.370
  H     -167.003    -330.095    -763.629
  H     -161.118    -323.977    -764.289
  H     -167.973    -323.103    -762.957
  H     -166.449    -325.022    -763.329
  H     -166.420    -327.911    -761.015
  H     -167.911    -328.097    -763.409
  H     -166.336    -326.769    -764.601
  H     -164.146    -328.452    -763.249
  H     -170.530    -323.281    -760.266
  H     -162.745    -326.490    -763.584
  H     -169.844    -322.242    -761.471
  H     -163.420    -326.983    -765.146
  P     -165.559    -328.084    -766.808
  C     -167.545    -329.610    -767.445
  O     -166.208    -329.214    -767.750
  O     -164.181    -327.653    -767.182
  O     -166.641    -326.898    -766.891
  H     -166.331    -326.095    -766.391
  H     -167.861    -330.362    -768.138
  H     -168.194    -328.762    -767.518
  H     -167.582    -330.003    -766.451

 6  7  8  9  10  11  12  13  14  15  16  26  30  31  32  33  35 0
 6-311+G(2d,p)
 ****
 37  38 0
 6-311+G(2d,p)
 ****
 1  2  3  4  5  17  18  19  20  21  22  23  24  25 0
 3-21G
 ****
 27  28  29  34  36  39  40  41  42  43  44  45  46 0
 3-21G
 ****


