%nproc=1
%NoSave
%Mem=1900MB
#P OB98/GEN NMR

erre ene a

0 1
  C      698.306    -846.902    -310.848
  O      699.684    -846.580    -311.130
  P      700.731    -847.785    -311.350
  C      703.273    -848.017    -311.825
  O      702.215    -847.207    -311.329
  C      704.455    -847.147    -312.283
  O      704.152    -846.384    -313.464
  C      704.893    -846.123    -311.236
  O      705.745    -846.706    -310.276
  C      705.666    -845.145    -312.088
  O      707.007    -845.650    -312.348
  C      704.857    -845.120    -313.390
  N      704.034    -840.385    -315.146
  C      705.119    -841.186    -315.211
  N      705.258    -842.437    -314.693
  C      704.138    -842.838    -314.103
  C      702.960    -842.111    -313.940
  C      702.922    -840.828    -314.506
  N      701.824    -840.000    -314.441
  N      702.016    -842.849    -313.256
  C      702.616    -843.989    -312.985
  N      703.891    -844.026    -313.464
  O      700.495    -848.189    -312.894
  O      700.487    -848.957    -310.468
  H      706.878    -846.534    -312.770
  H      700.613    -849.136    -313.004
  H      705.982    -840.790    -315.729
  H      702.161    -844.825    -312.462
  H      705.480    -845.055    -314.292
  H      705.811    -844.157    -311.616
  H      704.025    -845.622    -310.772
  H      705.305    -847.810    -312.511
  H      702.925    -848.612    -312.675
  H      701.858    -839.102    -314.900
  H      700.981    -840.344    -313.990
  H      703.588    -848.724    -311.035
  P      705.216    -846.731    -308.741
  C      706.155    -847.624    -306.480
  O      706.377    -847.398    -307.873
  O      704.062    -847.823    -308.777
  O      704.729    -845.394    -308.244
  H      703.361    -847.591    -308.113
  H      706.894    -848.350    -306.133
  H      705.136    -847.992    -306.312
  H      706.291    -846.695    -305.954
  H      697.746    -845.998    -310.729
  H      698.251    -847.477    -309.947
  H      697.899    -847.470    -311.659

 3  4  5  6  7  8  9  10  11  12  22  25  29  30  31  32 0
 6-311+G(2d,p)
 ****
 33  36  37 0
 6-311+G(2d,p)
 ****
 1  2  13  14  15  16  17  18  19  20  21  23  24  26 0
 3-21G
 ****
 27  28  34  35  38  39  40  41  42  43  44  45  46  47  48 0
 3-21G
 ****


