%nproc=1
%NoSave
%Mem=1900MB
#P OB98/GEN NMR

erre ene a

0 1
  C       76.468    1151.272    1275.470
  O       75.148    1151.621    1275.899
  P       74.241    1150.441    1276.549
  C       73.180    1149.510    1274.314
  O       73.007    1150.241    1275.544
  C       71.827    1149.301    1273.678
  O       70.977    1148.496    1274.531
  C       71.033    1150.573    1273.393
  O       71.523    1151.288    1272.262
  C       69.599    1150.010    1273.235
  O       69.439    1149.487    1271.914
  C       69.612    1148.866    1274.282
  N       68.933    1149.235    1275.506
  C       67.539    1149.133    1275.538
  O       66.884    1148.757    1274.536
  N       66.910    1149.496    1276.714
  C       67.565    1149.978    1277.840
  O       66.937    1150.316    1278.821
  C       69.011    1150.085    1277.784
  C       69.639    1149.709    1276.621
  O       73.641    1151.252    1277.796
  O       75.039    1149.248    1276.917
  H       73.563    1152.222    1277.613
  H       69.648    1150.239    1271.307
  H       65.939    1149.392    1276.735
  H       69.546    1150.469    1278.631
  H       70.707    1149.794    1276.559
  H       69.105    1147.977    1273.854
  H       68.836    1150.788    1273.393
  H       71.070    1151.222    1274.276
  H       71.974    1148.756    1272.711
  H       73.616    1148.528    1274.551
  H       73.859    1150.066    1273.679
  P       72.302    1152.693    1272.580
  C       70.284    1154.097    1273.510
  O       71.203    1153.856    1272.464
  O       73.195    1152.830    1271.289
  O       73.070    1152.682    1273.857
  H       72.708    1152.590    1270.448
  H       69.884    1155.103    1273.433
  H       70.750    1153.984    1274.518
  H       69.455    1153.359    1273.415
  H       76.951    1152.136    1275.065
  H       76.410    1150.511    1274.720
  H       77.030    1150.908    1276.305

 3  4  5  6  7  8  9  10  11  12  13  24  28  29  30  31  32 0
 6-311+G(2d,p)
 ****
 33  34 0
 6-311+G(2d,p)
 ****
 1  2  14  15  16  17  18  19  20  21  22  23  25  26  27 0
 3-21G
 ****
 35  36  37  38  39  40  41  42  43  44  45 0
 3-21G
 ****


