%nproc=1
%NoSave
%Mem=1900MB
#P OB98/GEN NMR

erre ene a

0 1
  C      112.753    -890.520    -770.520
  O      114.152    -890.690    -770.606
  H      112.342    -890.420    -771.545
  H      112.494    -889.630    -769.950
  H      112.300    -891.410    -770.058
  P      114.994    -890.760    -769.248
  C      115.388    -893.320    -769.104
  O      114.688    -892.190    -768.595
  C      114.410    -894.430    -769.503
  O      113.508    -893.930    -770.542
  C      115.113    -895.710    -770.060
  O      114.268    -896.810    -769.759
  C      115.076    -895.420    -771.568
  O      115.355    -896.550    -772.326
  C      113.653    -894.800    -771.698
  N      113.498    -894.080    -772.956
  C      112.657    -894.680    -773.902
  O      112.099    -895.750    -773.643
  N      112.441    -894.040    -775.103
  C      113.111    -892.930    -775.364
  N      112.888    -892.370    -776.573
  C      114.057    -892.300    -774.422
  C      114.209    -892.940    -773.236
  O      114.850    -889.590    -768.328
  O      116.521    -890.910    -769.753
  H      115.370    -896.330    -773.278
  H      117.002    -890.070    -769.641
  H      114.579    -891.410    -774.699
  H      114.881    -892.540    -772.488
  H      112.904    -895.570    -771.633
  H      115.841    -894.660    -771.850
  H      116.120    -895.850    -769.676
  H      113.786    -894.680    -768.651
  H      112.248    -892.850    -777.196
  H      116.065    -893.680    -768.299
  H      113.358    -891.540    -776.887
  H      115.981    -893.030    -769.981
  P      114.676    -897.890    -768.633
  C      112.394    -898.210    -767.428
  O      113.728    -897.670    -767.348
  O      116.111    -897.930    -768.292
  O      114.193    -899.310    -769.230
  H      114.754    -900.000    -768.884
  H      111.869    -898.000    -766.520
  H      112.446    -899.269    -767.573
  H      111.877    -897.762    -768.251

 6  7  8  9  10  11  12  13  14  15  16  26  30  31  32  33  35 0
 6-311+G(2d,p)
 ****
 37  38 0
 6-311+G(2d,p)
 ****
 1  2  3  4  5  17  18  19  20  21  22  23  24  25 0
 3-21G
 ****
 27  28  29  34  36  39  40  41  42  43  44  45  46 0
 3-21G
 ****


