%nproc=1
%NoSave
%Mem=1900MB
#P OB98/GEN NMR

erre ene a

0 1
  C      139.572    -219.450       0.368
  O      139.720    -220.653      -0.361
  P      139.581    -222.066       0.379
  C      137.166    -222.367      -0.450
  O      138.027    -222.326       0.683
  C      136.640    -223.784      -0.670
  O      137.660    -224.628      -1.249
  C      136.220    -224.493       0.607
  O      135.002    -223.987       1.124
  C      136.164    -225.941       0.134
  O      134.933    -226.204      -0.556
  C      137.353    -225.988      -0.852
  N      138.515    -226.654      -0.286
  C      138.421    -228.045      -0.148
  O      137.374    -228.627      -0.417
  N      139.520    -228.732       0.304
  C      140.570    -228.083       0.701
  N      141.650    -228.819       1.078
  C      140.650    -226.605       0.722
  C      139.604    -225.965       0.197
  O      140.490    -222.267       1.548
  O      139.897    -223.138      -0.773
  H      140.567    -223.768      -0.438
  H      134.259    -226.371       0.129
  H      141.520    -226.112       1.122
  H      139.580    -224.878       0.151
  H      137.060    -226.507      -1.772
  H      136.232    -226.653       0.959
  H      137.008    -224.390       1.366
  H      135.794    -223.730      -1.370
  H      141.566    -229.824       1.034
  H      137.731    -222.045      -1.332
  H      142.594    -228.440       1.089
  H      136.336    -221.667      -0.298
  P      134.726    -224.206       2.691
  C      136.843    -222.914       3.431
  O      136.140    -224.142       3.440
  O      134.319    -225.756       2.775
  O      133.658    -223.335       3.262
  H      133.630    -225.876       3.455
  H      137.575    -222.926       4.247
  H      136.172    -222.064       3.573
  H      137.378    -222.807       2.483
  H      139.698    -218.616      -0.291
  H      140.311    -219.408       1.141
  H      138.596    -219.416       0.805

 3  4  5  6  7  8  9  10  11  12  13  24  27  28  29  30  32 0
 6-311+G(2d,p)
 ****
 34  35 0
 6-311+G(2d,p)
 ****
 1  2  14  15  16  17  18  19  20  21  22  23  25  26 0
 3-21G
 ****
 31  33  36  37  38  39  40  41  42  43  44  45  46 0
 3-21G
 ****


