%nproc=1
%NoSave
%Mem=1900MB
#P OB98/GEN NMR

erre ene a

0 1
  C      -69.807    -109.655    -171.912
  O      -69.948    -109.140    -170.602
  H      -70.786    -109.644    -172.398
  H      -69.442    -110.685    -171.882
  H      -69.122    -109.033    -172.494
  P      -68.655    -109.088    -169.659
  C      -68.869    -111.519    -168.812
  O      -68.105    -110.593    -169.574
  C      -67.949    -112.404    -167.976
  O      -67.120    -113.218    -168.829
  C      -66.998    -111.634    -167.061
  O      -67.659    -111.235    -165.872
  C      -65.936    -112.691    -166.813
  O      -66.422    -113.649    -165.852
  C      -65.817    -113.352    -168.198
  N      -60.856    -112.860    -169.150
  C      -61.498    -113.437    -168.071
  N      -60.706    -113.926    -167.094
  N      -62.798    -113.518    -167.956
  C      -63.464    -112.925    -168.973
  C      -62.941    -112.306    -170.087
  C      -61.499    -112.283    -170.235
  O      -60.891    -111.802    -171.187
  N      -63.924    -111.738    -170.857
  C      -65.044    -112.062    -170.238
  N      -64.819    -112.775    -169.083
  O      -68.839    -108.433    -168.324
  O      -67.550    -108.345    -170.546
  H      -66.441    -113.204    -164.986
  H      -67.555    -107.384    -170.383
  H      -59.851    -112.820    -169.181
  H      -66.041    -111.810    -170.580
  H      -65.595    -114.423    -168.125
  H      -65.009    -112.277    -166.412
  H      -59.711    -113.762    -167.054
  H      -66.539    -110.785    -167.581
  H      -61.159    -114.300    -166.269
  H      -68.580    -113.089    -167.394
  H      -69.446    -112.127    -169.516
  H      -69.566    -110.989    -168.154
  P      -67.133    -109.998    -164.991
  C      -65.671    -111.614    -163.599
  O      -65.708    -110.459    -164.420
  O      -68.091    -109.514    -163.958
  O      -66.716    -108.895    -166.069
  H      -67.479    -108.335    -166.362
  H      -64.663    -111.802    -163.293
  H      -66.039    -112.455    -164.149
  H      -66.283    -111.457    -162.735

 6  7  8  9  10  11  12  13  14  15  26  29  33  34 0
 6-311+G(2d,p)
 ****
 36  38  39  40  41 0
 6-311+G(2d,p)
 ****
 1  2  3  4  5  16  17  18  19  20  21  22  23  24  25 0
 3-21G
 ****
 27  28  30  31  32  35  37  42  43  44  45  46  47 0
 3-21G
 ****
 48  49 0
 3-21G
 ****


