%nproc=1
%NoSave
%Mem=1900MB
#P OB98/GEN NMR

erre ene a

0 1
  C      388.388     -68.956    -204.249
  O      387.295     -68.626    -205.106
  P      387.647     -68.099    -206.583
  C      387.009     -65.584    -206.236
  O      388.037     -66.548    -206.415
  C      387.544     -64.171    -206.508
  O      386.459     -63.200    -206.347
  C      388.697     -63.739    -205.595
  O      389.586     -62.950    -206.397
  C      388.003     -62.861    -204.562
  O      388.911     -61.970    -203.928
  C      386.935     -62.194    -205.432
  N      385.839     -61.622    -204.643
  C      386.130     -60.496    -203.879
  O      387.265     -60.031    -203.780
  N      385.079     -59.960    -203.184
  C      383.811     -60.470    -203.124
  O      382.909     -59.944    -202.486
  C      383.595     -61.726    -203.865
  C      384.607     -62.237    -204.578
  O      386.204     -68.075    -207.266
  O      388.668     -68.947    -207.276
  H      385.491     -67.808    -206.660
  H      389.311     -61.385    -204.605
  H      385.261     -59.121    -202.648
  H      382.617     -62.189    -203.792
  H      384.481     -63.170    -205.114
  H      387.378     -61.387    -206.030
  H      387.541     -63.491    -203.795
  H      389.233     -64.582    -205.165
  H      387.860     -64.126    -207.557
  H      386.633     -65.626    -205.212
  H      386.168     -65.828    -206.898
  P      390.869     -63.676    -207.048
  C      392.506     -62.942    -205.133
  O      391.886     -63.992    -205.852
  O      391.557     -62.430    -207.785
  O      390.554     -64.801    -207.980
  H      391.616     -61.637    -207.220
  H      392.964     -63.350    -204.235
  H      391.778     -62.176    -204.846
  H      393.294     -62.488    -205.752
  H      388.012     -69.290    -203.304
  H      389.001     -68.091    -204.103
  H      388.970     -69.734    -204.697

 3  4  5  6  7  8  9  10  11  12  13  24  28  29  30  31  32 0
 6-311+G(2d,p)
 ****
 33  34 0
 6-311+G(2d,p)
 ****
 1  2  14  15  16  17  18  19  20  21  22  23  25  26  27 0
 3-21G
 ****
 35  36  37  38  39  40  41  42  43  44  45 0
 3-21G
 ****


