%nproc=1
%NoSave
%Mem=1900MB
#P OB98/GEN NMR

erre ene a

0 1
  C      301.104     135.147     300.615
  O      302.096     134.806     301.594
  P      303.476     134.093     301.199
  C      303.332     132.881     303.471
  O      304.178     133.550     302.535
  C      303.978     132.796     304.858
  O      305.269     132.162     304.781
  C      304.213     134.141     305.535
  O      303.009     134.635     306.091
  C      305.291     133.784     306.549
  O      304.706     133.175     307.713
  C      306.128     132.749     305.773
  N      311.013     134.104     306.481
  C      310.112     133.516     307.299
  N      308.828     133.189     307.037
  C      308.507     133.516     305.774
  C      309.314     134.128     304.825
  C      310.628     134.425     305.220
  N      311.539     135.038     304.392
  N      308.627     134.323     303.646
  C      307.426     133.823     303.870
  N      307.302     133.330     305.146
  O      304.367     134.919     300.332
  O      303.039     132.748     300.443
  H      304.323     132.322     307.437
  H      303.731     132.486     299.806
  H      310.470     133.272     308.293
  H      306.617     133.804     303.151
  H      306.470     131.937     306.421
  H      305.870     134.650     306.882
  H      304.621     134.857     304.813
  H      303.339     132.159     305.488
  H      303.127     131.874     303.095
  H      312.451     135.253     304.765
  H      311.248     135.326     303.469
  H      302.385     133.430     303.533
  P      302.922     136.147     306.614
  C      301.568     135.469     308.688
  O      301.602     136.268     307.511
  O      303.070     137.198     305.561
  O      304.096     136.243     307.700
  H      304.436     137.161     307.725
  H      301.301     134.440     308.421
  H      300.809     135.878     309.358
  H      302.542     135.479     309.190
  H      300.270     135.611     301.099
  H      300.777     134.260     300.114
  H      301.525     135.825     299.902

 3  4  5  6  7  8  9  10  11  12  22  25  29  30  31  32 0
 6-311+G(2d,p)
 ****
 33  36  37 0
 6-311+G(2d,p)
 ****
 1  2  13  14  15  16  17  18  19  20  21  23  24  26 0
 3-21G
 ****
 27  28  34  35  38  39  40  41  42  43  44  45  46  47  48 0
 3-21G
 ****


