%nproc=1
%NoSave
%Mem=1900MB
#P OB98/GEN NMR

erre ene a

0 1
  C      326.140     340.164    -294.802
  O      327.406     340.625    -295.281
  P      328.691     340.474    -294.335
  C      329.449     338.012    -294.180
  O      329.573     339.247    -294.879
  C      330.726     337.183    -294.312
  O      330.662     335.976    -293.524
  C      330.994     336.720    -295.738
  O      331.459     337.791    -296.542
  C      331.995     335.598    -295.501
  O      333.321     336.118    -295.335
  C      331.496     334.991    -294.172
  N      330.791     333.729    -294.341
  C      331.591     332.577    -294.349
  O      332.813     332.668    -294.260
  N      330.975     331.355    -294.478
  C      329.686     331.292    -294.598
  N      329.130     330.051    -294.718
  C      328.812     332.478    -294.605
  C      329.425     333.655    -294.479
  O      328.417     340.455    -292.867
  O      329.585     341.747    -294.742
  H      333.854     335.389    -294.960
  H      330.108     342.026    -293.962
  H      327.739     332.373    -294.695
  H      328.861     334.580    -294.481
  H      332.343     334.810    -293.497
  H      332.024     334.897    -296.340
  H      330.071     336.305    -296.171
  H      331.568     337.792    -293.957
  H      329.752     329.251    -294.722
  H      328.596     337.454    -294.574
  H      328.136     329.891    -294.765
  H      329.227     338.228    -293.127
  P      331.128     337.745    -298.108
  C      328.665     338.313    -298.693
  O      329.958     338.802    -298.388
  O      330.394     336.327    -298.279
  O      332.318     337.846    -299.003
  H      330.610     335.951    -299.150
  H      327.944     339.125    -298.544
  H      328.393     337.478    -298.042
  H      328.627     337.997    -299.735
  H      325.392     340.336    -295.548
  H      325.882     340.694    -293.909
  H      326.198     339.117    -294.591

 3  4  5  6  7  8  9  10  11  12  13  23  27  28  29  30  32 0
 6-311+G(2d,p)
 ****
 34  35 0
 6-311+G(2d,p)
 ****
 1  2  14  15  16  17  18  19  20  21  22  24  25  26 0
 3-21G
 ****
 31  33  36  37  38  39  40  41  42  43  44  45  46 0
 3-21G
 ****


