%nproc=1
%NoSave
%Mem=1900MB
#P OB98/GEN NMR

erre ene a

0 1
  C      193.658     110.176     -76.454
  O      194.921     110.668     -76.052
  H      193.492     110.377     -77.517
  H      193.632     109.097     -76.288
  H      192.867     110.644     -75.861
  P      195.196     112.227     -76.317
  C      196.784     114.007     -75.307
  O      196.447     112.632     -75.397
  C      198.049     114.186     -74.477
  O      197.784     113.891     -73.090
  C      199.206     113.269     -74.867
  O      199.891     113.741     -76.022
  C      200.074     113.366     -73.623
  O      200.849     114.579     -73.665
  C      199.032     113.447     -72.496
  N      200.674     110.278     -68.801
  C      201.130     111.478     -69.229
  N      200.652     112.255     -70.221
  C      199.573     111.692     -70.793
  C      198.997     110.481     -70.467
  C      199.592     109.750     -69.422
  N      199.130     108.523     -69.008
  N      197.895     110.238     -71.258
  C      197.806     111.283     -72.050
  N      198.804     112.190     -71.815
  O      193.959     112.951     -75.598
  O      195.301     112.621     -77.753
  H      200.211     115.314     -73.733
  H      193.706     113.739     -76.119
  H      201.995     111.867     -68.699
  H      197.041     111.426     -72.806
  H      199.311     114.197     -71.744
  H      200.773     112.533     -73.522
  H      198.867     112.237     -74.996
  H      198.350     115.240     -74.544
  H      195.964     114.552     -74.831
  H      199.469     108.147     -68.138
  H      198.312     108.137     -69.473
  H      196.934     114.400     -76.320
  P      200.925     112.736     -76.727
  C      201.531     112.183     -79.191
  O      200.779     113.004     -78.303
  O      200.238     111.304     -76.530
  O      202.312     112.768     -76.179
  H      200.915     110.604     -76.548
  H      201.333     112.476     -80.201
  H      201.250     111.160     -79.055
  H      202.575     112.297     -78.984

 6  7  8  9  10  11  12  13  14  15  25  28  32  33  34  35 0
 6-311+G(2d,p)
 ****
 36  39  40 0
 6-311+G(2d,p)
 ****
 1  2  3  4  5  16  17  18  19  20  21  22  23  24 0
 3-21G
 ****
 26  27  29  30  31  37  38  41  42  43  44  45  46  47  48 0
 3-21G
 ****


