%nproc=1
%NoSave
%Mem=1900MB
#P OB98/GEN NMR

erre ene a

0 1
  C      158.131      28.042       1.431
  O      159.390      27.947       0.790
  P      160.421      29.162       0.949
  C      158.933      30.602      -0.622
  O      160.234      30.128      -0.318
  C      159.003      31.730      -1.653
  O      157.654      32.066      -2.096
  C      159.644      33.022      -1.124
  O      160.347      33.635      -2.214
  C      158.435      33.863      -0.762
  O      158.724      35.248      -0.666
  C      157.491      33.486      -1.909
  N      156.098      33.838      -1.639
  C      155.734      35.171      -1.802
  O      156.510      36.059      -2.154
  N      154.438      35.478      -1.482
  C      153.520      34.626      -0.944
  O      152.411      34.991      -0.570
  C      153.961      33.230      -0.794
  C      155.208      32.906      -1.145
  O      161.842      28.472       0.695
  O      160.366      29.857       2.268
  H      159.478      35.349      -0.057
  H      162.291      28.294       1.542
  H      154.155      36.437      -1.604
  H      153.250      32.522      -0.390
  H      155.566      31.888      -1.025
  H      157.815      33.970      -2.839
  H      158.038      33.534       0.206
  H      160.318      32.862      -0.277
  H      159.551      31.366      -2.532
  H      158.466      30.979       0.289
  H      158.319      29.776      -0.996
  P      161.846      34.148      -1.948
  C      161.086      36.643      -2.099
  O      161.944      35.622      -2.563
  O      162.660      33.240      -2.990
  O      162.295      33.982      -0.532
  H      162.220      33.175      -3.852
  H      160.866      36.533      -1.035
  H      160.153      36.615      -2.666
  H      161.569      37.610      -2.262
  H      157.561      27.159       1.231
  H      157.605      28.897       1.060
  H      158.275      28.142       2.487

 3  4  5  6  7  8  9  10  11  12  13  23  28  29  30  31  32 0
 6-311+G(2d,p)
 ****
 33  34 0
 6-311+G(2d,p)
 ****
 1  2  14  15  16  17  18  19  20  21  22  24  25  26 0
 3-21G
 ****
 27  35  36  37  38  39  40  41  42  43  44  45 0
 3-21G
 ****


