%nproc=1
%NoSave
%Mem=1900MB
#P OB98/GEN NMR

erre ene a

0 1
  C      -64.061     -71.290     115.455
  O      -64.769     -70.146     114.967
  P      -64.615     -68.777     115.791
  C      -64.791     -67.302     113.633
  O      -65.332     -67.655     114.898
  C      -65.723     -66.323     112.921
  O      -66.989     -66.957     112.614
  C      -66.076     -65.090     113.739
  O      -64.991     -64.178     113.794
  C      -67.300     -64.586     112.989
  O      -66.904     -63.850     111.822
  C      -67.985     -65.906     112.572
  N      -69.142     -66.234     113.393
  C      -70.381     -66.108     112.771
  O      -70.516     -65.720     111.612
  N      -71.469     -66.423     113.539
  C      -71.441     -66.815     114.846
  O      -72.449     -67.094     115.481
  C      -70.107     -66.882     115.462
  C      -69.035     -66.593     114.721
  O      -63.054     -68.487     115.618
  O      -65.089     -68.890     117.201
  H      -62.709     -68.762     114.752
  H      -67.721     -63.460     111.451
  H      -72.376     -66.350     113.103
  H      -70.049     -67.165     116.506
  H      -68.043     -66.635     115.159
  H      -68.316     -65.844     111.528
  H      -67.922     -63.923     113.599
  H      -66.359     -65.388     114.756
  H      -65.249     -66.027     111.976
  H      -64.670     -68.197     113.015
  H      -63.799     -66.866     113.781
  P      -64.513     -63.704     115.254
  C      -62.418     -62.541     114.209
  O      -63.560     -62.436     115.029
  O      -63.506     -64.884     115.648
  O      -65.638     -63.504     116.217
  H      -62.912     -65.135     114.923
  H      -62.112     -61.537     113.903
  H      -62.622     -63.134     113.313
  H      -61.602     -63.001     114.773
  H      -64.251     -72.127     114.816
  H      -64.391     -71.517     116.447
  H      -63.012     -71.082     115.467

 3  4  5  6  7  8  9  10  11  12  13  24  28  29  30  31  32 0
 6-311+G(2d,p)
 ****
 33  34 0
 6-311+G(2d,p)
 ****
 1  2  14  15  16  17  18  19  20  21  22  23  25  26  27 0
 3-21G
 ****
 35  36  37  38  39  40  41  42  43  44  45 0
 3-21G
 ****


